ba8 si16                                
   1.00000000000000     
    15.6539524148853371    0.0000000000000000    0.0000000000000000
     0.0000000000000000    5.7106871068017648    0.0000000000000000
     0.0000000000000000    0.0000000000000000   11.5950638253054876
   Ba   Si
     4     8
Direct
 -0.0242505832475664  0.2500000000663931  0.7459996763553185
  0.2552065173261033  0.7500000176088264  0.2459996146296540
  0.1892570430624708  0.7500000176088264  0.8968079750415672
  0.0416988894779826  0.2500000000663931  0.3968080572548224
  0.1034217191258890  0.0367530780845472  0.1372116909780169
  0.1275342134145647  0.9632469130335761  0.6372117115043957
  0.1034217191258890  0.4632469130483342  0.1372116909780169
  0.1275342134145647  0.5367530869221571  0.6372117115043957
 -0.0021768704332602  0.7500000176088264  0.5718139869048007
  0.2331328060498878  0.2500000000663931  0.0718139252653253
  0.1015560048910566  0.2500000000663931  0.9613439782508435
  0.1293999215483147  0.7500000176088264  0.4613438960979211
 
  0.00000000E+00  0.00000000E+00  0.00000000E+00
  0.00000000E+00  0.00000000E+00  0.00000000E+00
  0.00000000E+00  0.00000000E+00  0.00000000E+00
  0.00000000E+00  0.00000000E+00  0.00000000E+00
  0.00000000E+00  0.00000000E+00  0.00000000E+00
  0.00000000E+00  0.00000000E+00  0.00000000E+00
  0.00000000E+00  0.00000000E+00  0.00000000E+00
  0.00000000E+00  0.00000000E+00  0.00000000E+00
  0.00000000E+00  0.00000000E+00  0.00000000E+00
  0.00000000E+00  0.00000000E+00  0.00000000E+00
  0.00000000E+00  0.00000000E+00  0.00000000E+00
  0.00000000E+00  0.00000000E+00  0.00000000E+00
