ba8 si16                                
   1.00000000000000     
    72.9478846024042298    0.0000000000000000    0.0000000000000000
     0.0000000000000000    6.6977297958871196    0.0000000000000000
     0.0000000000000000    0.0000000000000000   11.4654850081728039
   Ba   Si
    52   104
Direct
  0.0044694573822048  0.2500000000663931  0.7009936555812265
  0.1245616169092934  0.2500000000663931  0.6906827095748435
  0.2469119375644671  0.2500000000663931  0.6912234993026644
  0.3693978391489877  0.2500000000663931  0.6913719002828648
  0.4918397055316394  0.2500000000663931  0.6914986737521286
  0.6143510097437592  0.2500000000663931  0.6909945648235920
  0.7382173996322273  0.2500000000663931  0.6930145435049694
  0.1205110546666229  0.7500000176088264  0.3081890926923331
  0.2430209537025566  0.7500000176088264  0.3083515396208348
  0.3654744087385379  0.7500000176088264  0.3087658410732226
  0.4879277510100941  0.7500000176088264  0.3084891893380096
  0.6104418808768325  0.7500000176088264  0.3086491977540710
  0.7325971908854243  0.7500000176088264  0.3085162153992754
  0.0578717438661362  0.7500000176088264  0.1930144817793047
  0.1817381337545975  0.7500000176088264  0.1909945030979270
  0.3042494250115834  0.7500000176088264  0.1914986120264644
  0.4266912654567678  0.7500000176088264  0.1913718385572005
  0.5491771929651559  0.7500000176088264  0.1912234375770004
  0.6715275006651954  0.7500000176088264  0.1906826478491787
  0.7916196607904189  0.7500000176088264  0.2009935938555623
  0.0634919266754649  0.2500000000663931  0.8085162565252968
  0.1856472366976494  0.2500000000663931  0.8086492388800928
  0.3081613795195288  0.2500000000663931  0.8084892304640312
  0.4306147217910851  0.2500000000663931  0.8087658821992442
  0.5530681509031989  0.2500000000663931  0.8083515807468563
  0.6755780369703990  0.2500000000663931  0.8081891338183547
  0.0261809962586579  0.7500000176088264  0.9120706776061070
  0.1424071419639220  0.7500000176088264  0.9060347846998199
  0.2646816565805622  0.7500000176088264  0.9059113008810561
  0.3871005991163247  0.7500000176088264  0.9061160366357913
  0.5095991937877048  0.7500000176088264  0.9059686786488669
  0.6319823190351076  0.7500000176088264  0.9050796433810122
  0.7537602591924548  0.7500000176088264  0.8956091956117153
  0.1023071006623550  0.2500000000663931  0.0931387054509443
  0.2253081811506411  0.2500000000663931  0.0937581872873190
  0.3477312206201824  0.2500000000663931  0.0941568981820222
  0.4702361628554070  0.2500000000663931  0.0941761075634693
  0.5926513327505534  0.2500000000663931  0.0936260607338145
  0.7148757611919746  0.2500000000663931  0.0952683416197489
  0.0423288713371754  0.2500000000663931  0.3956092778249701
  0.1641068114945227  0.2500000000663931  0.4050797255942673
  0.2864899367555180  0.2500000000663931  0.4059687608621218
  0.4089885054894308  0.2500000000663931  0.4061161188490460
  0.5314074220877260  0.2500000000663931  0.4059113830943111
  0.6536819885793007  0.2500000000663931  0.4060348669130751
  0.7699080808055303  0.2500000000663931  0.4120707598193620
  0.0812133758220183  0.7500000176088264  0.5952683211192266
  0.2034378107478033  0.7500000176088264  0.5936260402332925
  0.3258529676742160  0.7500000176088264  0.5941760870629472
  0.4483578580616985  0.7500000176088264  0.5941568776815003
  0.5707809493789818  0.7500000176088264  0.5937581667867967
  0.6937820298808607  0.7500000176088264  0.5931386849504217
  0.0221553127280737  0.0714323385415693  0.1454595617761127
  0.1458595967687824  0.0702580829385956  0.1459832874668529
  0.2685063036284465  0.0701794296892410  0.1460909876473662
  0.3909311330832251  0.0702361922244572  0.1463990165544630
  0.5134342335533709  0.0701780411743528  0.1462001599694223
  0.6358530787058293  0.0701802359693593  0.1455582498895560
  0.7580169693788591  0.0712687854378595  0.1419965892737057
  0.0995660153033706  0.9301400510989690  0.8544949957435377
  0.2214740106118548  0.9298006563071698  0.8534471670520400
  0.3439021321053262  0.9298093567331310  0.8538734220407684
  0.4663945794309392  0.9298260366644870  0.8539747420202769
  0.5888081197635469  0.9298010444214390  0.8533622163452156
  0.7114071574046448  0.9304546171434473  0.8531681366570927
  0.0380721546664008  0.9287312056802640  0.6419966098000846
  0.1602360388686523  0.9298197551487639  0.6455582704159344
  0.2826548969762524  0.9298219499437703  0.6462001804958007
  0.4051579715225232  0.9297637988936667  0.6463990370808413
  0.5275828269011762  0.9298205614288824  0.6460910081737452
  0.6502295467295743  0.9297419081795277  0.6459833079932317
  0.7739338242859194  0.9285676525765540  0.6454595823024911
  0.0846819277480066  0.0695453739746758  0.3531681366441604
  0.2072809718870676  0.0701989466966844  0.3533622163322835
  0.3296945251748162  0.0701739544536366  0.3539747420073449
  0.4521869984378965  0.0701906343849926  0.3538734220278373
  0.5746151199177748  0.0701993348109537  0.3534471670391083
  0.6965231022711184  0.0698599400191546  0.3544949957306061
  0.0995660153033706  0.5698599488567642  0.8544949957435377
  0.2214740106118548  0.5701993436485634  0.8534471670520400
  0.3439021321053262  0.5701906432226022  0.8538734220407684
  0.4663945794309392  0.5701739632912461  0.8539747420202769
  0.5888081197635469  0.5701989555342942  0.8533622163452156
  0.7114071574046448  0.5695453828122858  0.8531681366570927
  0.0221553127280737  0.4285676525913119  0.1454595617761127
  0.1458595967687824  0.4297419081942856  0.1459832874668529
  0.2685063036284465  0.4298205614436406  0.1460909876473662
  0.3909311330832251  0.4297637989084243  0.1463990165544630
  0.5134342335533709  0.4298219499585288  0.1462001599694223
  0.6358530787058293  0.4298197551635222  0.1455582498895560
  0.7580169693788591  0.4287312056950220  0.1419965892737057
  0.0846819277480066  0.4304546171582057  0.3531681366441604
  0.2072809718870676  0.4298010444361971  0.3533622163322835
  0.3296945251748162  0.4298260366792448  0.3539747420073449
  0.4521869984378965  0.4298093567478887  0.3538734220278373
  0.5746151199177748  0.4298006563219277  0.3534471670391083
  0.6965231022711184  0.4301400511137268  0.3544949957306061
  0.0380721546664008  0.5712687942754692  0.6419966098000846
  0.1602360388686523  0.5701802448069693  0.6455582704159344
  0.2826548969762524  0.5701780500119629  0.6462001804958007
  0.4051579715225232  0.5702362010620665  0.6463990370808413
  0.5275828269011762  0.5701794385268508  0.6460910081737452
  0.6502295467295743  0.5702580917762055  0.6459833079932317
  0.7739338242859194  0.5714323473791791  0.6454595823024911
  0.0090993310387810  0.7500000176088264  0.6178860628421815
  0.1327151762433280  0.7500000176088264  0.5912461359918242
  0.2551415518530478  0.7500000176088264  0.5912947460603403
  0.3776281541634514  0.7500000176088264  0.5917394679327087
  0.5000537111388546  0.7500000176088264  0.5916127204675631
  0.6226549550853763  0.7500000176088264  0.5916837606473418
  0.7458660070912452  0.7500000176088264  0.5827271150087456
  0.1121187831163474  0.2500000000663931  0.4081949477586859
  0.2348019695467302  0.2500000000663931  0.4081262046638296
  0.3572411384563479  0.2500000000663931  0.4082968182692422
  0.4797211062394071  0.2500000000663931  0.4084743816127577
  0.6021403920562498  0.2500000000663931  0.4081240328302643
  0.7238516487679747  0.2500000000663931  0.4091318987039853
  0.0502230877811619  0.2500000000663931  0.0827270533692702
  0.1734341495203724  0.2500000000663931  0.0916836990078660
  0.2960353934669010  0.2500000000663931  0.0916126588280873
  0.4184609504422970  0.2500000000663931  0.0917394062932329
  0.5409475786765819  0.2500000000663931  0.0912946844208644
  0.6633739542998948  0.2500000000663931  0.0912460743523485
  0.7869897841023694  0.2500000000663931  0.1178860012027054
  0.0722374688065070  0.7500000176088264  0.9091319398300074
  0.1939487255046394  0.7500000176088264  0.9081240739562859
  0.3163679465050135  0.7500000176088264  0.9084744227387799
  0.4388479661494075  0.7500000176088264  0.9082968593952641
  0.5612871609828927  0.7500000176088264  0.9081262457898513
  0.6839703603820094  0.7500000176088264  0.9081949888847076
  0.0223841463445977  0.2500000000663931  0.9626793873625722
  0.1464021920830993  0.2500000000663931  0.9641971513905027
  0.2689970840896201  0.2500000000663931  0.9642083477213991
  0.3913966178505757  0.2500000000663931  0.9644775292731883
  0.5138758283040382  0.2500000000663931  0.9642963638114387
  0.6363427100056327  0.2500000000663931  0.9636461291454418
  0.7642868306295660  0.2500000000663931  0.9618227285418330
  0.0986190146904773  0.7500000176088264  0.0371603766883381
  0.2209894864943048  0.7500000176088264  0.0354050175669575
  0.3434063326838367  0.7500000176088264  0.0357704944613157
  0.4658820142947173  0.7500000176088264  0.0358270442958768
  0.5883635202984222  0.7500000176088264  0.0353233403138060
  0.7109643212386842  0.7500000176088264  0.0353642119782999
  0.0318022577720701  0.7500000176088264  0.4618226463889106
  0.1597463816449816  0.7500000176088264  0.4636460469925189
  0.2822133281630521  0.7500000176088264  0.4642962816585160
  0.4046925126926399  0.7500000176088264  0.4644774471202656
  0.5270920464400032  0.7500000176088264  0.4642082655684766
  0.6496869384601160  0.7500000176088264  0.4641970692375801
  0.7737049258529199  0.7500000176088264  0.4626793052096497
  0.0851248028065682  0.2500000000663931  0.5353641965630469
  0.2077256102312010  0.2500000000663931  0.5353233248985527
  0.3302070643735708  0.2500000000663931  0.5358270288806234
  0.4526827719219116  0.2500000000663931  0.5357704790460629
  0.5750996440353254  0.2500000000663931  0.5354050021517043
  0.6974701223371088  0.2500000000663931  0.5371603612730849
 
  0.00000000E+00  0.00000000E+00  0.00000000E+00
  0.00000000E+00  0.00000000E+00  0.00000000E+00
  0.00000000E+00  0.00000000E+00  0.00000000E+00
  0.00000000E+00  0.00000000E+00  0.00000000E+00
  0.00000000E+00  0.00000000E+00  0.00000000E+00
  0.00000000E+00  0.00000000E+00  0.00000000E+00
  0.00000000E+00  0.00000000E+00  0.00000000E+00
  0.00000000E+00  0.00000000E+00  0.00000000E+00
  0.00000000E+00  0.00000000E+00  0.00000000E+00
  0.00000000E+00  0.00000000E+00  0.00000000E+00
  0.00000000E+00  0.00000000E+00  0.00000000E+00
  0.00000000E+00  0.00000000E+00  0.00000000E+00
  0.00000000E+00  0.00000000E+00  0.00000000E+00
  0.00000000E+00  0.00000000E+00  0.00000000E+00
  0.00000000E+00  0.00000000E+00  0.00000000E+00
  0.00000000E+00  0.00000000E+00  0.00000000E+00
  0.00000000E+00  0.00000000E+00  0.00000000E+00
  0.00000000E+00  0.00000000E+00  0.00000000E+00
  0.00000000E+00  0.00000000E+00  0.00000000E+00
  0.00000000E+00  0.00000000E+00  0.00000000E+00
  0.00000000E+00  0.00000000E+00  0.00000000E+00
  0.00000000E+00  0.00000000E+00  0.00000000E+00
  0.00000000E+00  0.00000000E+00  0.00000000E+00
  0.00000000E+00  0.00000000E+00  0.00000000E+00
  0.00000000E+00  0.00000000E+00  0.00000000E+00
  0.00000000E+00  0.00000000E+00  0.00000000E+00
  0.00000000E+00  0.00000000E+00  0.00000000E+00
  0.00000000E+00  0.00000000E+00  0.00000000E+00
  0.00000000E+00  0.00000000E+00  0.00000000E+00
  0.00000000E+00  0.00000000E+00  0.00000000E+00
  0.00000000E+00  0.00000000E+00  0.00000000E+00
  0.00000000E+00  0.00000000E+00  0.00000000E+00
  0.00000000E+00  0.00000000E+00  0.00000000E+00
  0.00000000E+00  0.00000000E+00  0.00000000E+00
  0.00000000E+00  0.00000000E+00  0.00000000E+00
  0.00000000E+00  0.00000000E+00  0.00000000E+00
  0.00000000E+00  0.00000000E+00  0.00000000E+00
  0.00000000E+00  0.00000000E+00  0.00000000E+00
  0.00000000E+00  0.00000000E+00  0.00000000E+00
  0.00000000E+00  0.00000000E+00  0.00000000E+00
  0.00000000E+00  0.00000000E+00  0.00000000E+00
  0.00000000E+00  0.00000000E+00  0.00000000E+00
  0.00000000E+00  0.00000000E+00  0.00000000E+00
  0.00000000E+00  0.00000000E+00  0.00000000E+00
  0.00000000E+00  0.00000000E+00  0.00000000E+00
  0.00000000E+00  0.00000000E+00  0.00000000E+00
  0.00000000E+00  0.00000000E+00  0.00000000E+00
  0.00000000E+00  0.00000000E+00  0.00000000E+00
  0.00000000E+00  0.00000000E+00  0.00000000E+00
  0.00000000E+00  0.00000000E+00  0.00000000E+00
  0.00000000E+00  0.00000000E+00  0.00000000E+00
  0.00000000E+00  0.00000000E+00  0.00000000E+00
  0.00000000E+00  0.00000000E+00  0.00000000E+00
  0.00000000E+00  0.00000000E+00  0.00000000E+00
  0.00000000E+00  0.00000000E+00  0.00000000E+00
  0.00000000E+00  0.00000000E+00  0.00000000E+00
  0.00000000E+00  0.00000000E+00  0.00000000E+00
  0.00000000E+00  0.00000000E+00  0.00000000E+00
  0.00000000E+00  0.00000000E+00  0.00000000E+00
  0.00000000E+00  0.00000000E+00  0.00000000E+00
  0.00000000E+00  0.00000000E+00  0.00000000E+00
  0.00000000E+00  0.00000000E+00  0.00000000E+00
  0.00000000E+00  0.00000000E+00  0.00000000E+00
  0.00000000E+00  0.00000000E+00  0.00000000E+00
  0.00000000E+00  0.00000000E+00  0.00000000E+00
  0.00000000E+00  0.00000000E+00  0.00000000E+00
  0.00000000E+00  0.00000000E+00  0.00000000E+00
  0.00000000E+00  0.00000000E+00  0.00000000E+00
  0.00000000E+00  0.00000000E+00  0.00000000E+00
  0.00000000E+00  0.00000000E+00  0.00000000E+00
  0.00000000E+00  0.00000000E+00  0.00000000E+00
  0.00000000E+00  0.00000000E+00  0.00000000E+00
  0.00000000E+00  0.00000000E+00  0.00000000E+00
  0.00000000E+00  0.00000000E+00  0.00000000E+00
  0.00000000E+00  0.00000000E+00  0.00000000E+00
  0.00000000E+00  0.00000000E+00  0.00000000E+00
  0.00000000E+00  0.00000000E+00  0.00000000E+00
  0.00000000E+00  0.00000000E+00  0.00000000E+00
  0.00000000E+00  0.00000000E+00  0.00000000E+00
  0.00000000E+00  0.00000000E+00  0.00000000E+00
  0.00000000E+00  0.00000000E+00  0.00000000E+00
  0.00000000E+00  0.00000000E+00  0.00000000E+00
  0.00000000E+00  0.00000000E+00  0.00000000E+00
  0.00000000E+00  0.00000000E+00  0.00000000E+00
  0.00000000E+00  0.00000000E+00  0.00000000E+00
  0.00000000E+00  0.00000000E+00  0.00000000E+00
  0.00000000E+00  0.00000000E+00  0.00000000E+00
  0.00000000E+00  0.00000000E+00  0.00000000E+00
  0.00000000E+00  0.00000000E+00  0.00000000E+00
  0.00000000E+00  0.00000000E+00  0.00000000E+00
  0.00000000E+00  0.00000000E+00  0.00000000E+00
  0.00000000E+00  0.00000000E+00  0.00000000E+00
  0.00000000E+00  0.00000000E+00  0.00000000E+00
  0.00000000E+00  0.00000000E+00  0.00000000E+00
  0.00000000E+00  0.00000000E+00  0.00000000E+00
  0.00000000E+00  0.00000000E+00  0.00000000E+00
  0.00000000E+00  0.00000000E+00  0.00000000E+00
  0.00000000E+00  0.00000000E+00  0.00000000E+00
  0.00000000E+00  0.00000000E+00  0.00000000E+00
  0.00000000E+00  0.00000000E+00  0.00000000E+00
  0.00000000E+00  0.00000000E+00  0.00000000E+00
  0.00000000E+00  0.00000000E+00  0.00000000E+00
  0.00000000E+00  0.00000000E+00  0.00000000E+00
  0.00000000E+00  0.00000000E+00  0.00000000E+00
  0.00000000E+00  0.00000000E+00  0.00000000E+00
  0.00000000E+00  0.00000000E+00  0.00000000E+00
  0.00000000E+00  0.00000000E+00  0.00000000E+00
  0.00000000E+00  0.00000000E+00  0.00000000E+00
  0.00000000E+00  0.00000000E+00  0.00000000E+00
  0.00000000E+00  0.00000000E+00  0.00000000E+00
  0.00000000E+00  0.00000000E+00  0.00000000E+00
  0.00000000E+00  0.00000000E+00  0.00000000E+00
  0.00000000E+00  0.00000000E+00  0.00000000E+00
  0.00000000E+00  0.00000000E+00  0.00000000E+00
  0.00000000E+00  0.00000000E+00  0.00000000E+00
  0.00000000E+00  0.00000000E+00  0.00000000E+00
  0.00000000E+00  0.00000000E+00  0.00000000E+00
  0.00000000E+00  0.00000000E+00  0.00000000E+00
  0.00000000E+00  0.00000000E+00  0.00000000E+00
  0.00000000E+00  0.00000000E+00  0.00000000E+00
  0.00000000E+00  0.00000000E+00  0.00000000E+00
  0.00000000E+00  0.00000000E+00  0.00000000E+00
  0.00000000E+00  0.00000000E+00  0.00000000E+00
  0.00000000E+00  0.00000000E+00  0.00000000E+00
  0.00000000E+00  0.00000000E+00  0.00000000E+00
  0.00000000E+00  0.00000000E+00  0.00000000E+00
  0.00000000E+00  0.00000000E+00  0.00000000E+00
  0.00000000E+00  0.00000000E+00  0.00000000E+00
  0.00000000E+00  0.00000000E+00  0.00000000E+00
  0.00000000E+00  0.00000000E+00  0.00000000E+00
  0.00000000E+00  0.00000000E+00  0.00000000E+00
  0.00000000E+00  0.00000000E+00  0.00000000E+00
  0.00000000E+00  0.00000000E+00  0.00000000E+00
  0.00000000E+00  0.00000000E+00  0.00000000E+00
  0.00000000E+00  0.00000000E+00  0.00000000E+00
  0.00000000E+00  0.00000000E+00  0.00000000E+00
  0.00000000E+00  0.00000000E+00  0.00000000E+00
  0.00000000E+00  0.00000000E+00  0.00000000E+00
  0.00000000E+00  0.00000000E+00  0.00000000E+00
  0.00000000E+00  0.00000000E+00  0.00000000E+00
  0.00000000E+00  0.00000000E+00  0.00000000E+00
  0.00000000E+00  0.00000000E+00  0.00000000E+00
  0.00000000E+00  0.00000000E+00  0.00000000E+00
  0.00000000E+00  0.00000000E+00  0.00000000E+00
  0.00000000E+00  0.00000000E+00  0.00000000E+00
  0.00000000E+00  0.00000000E+00  0.00000000E+00
  0.00000000E+00  0.00000000E+00  0.00000000E+00
  0.00000000E+00  0.00000000E+00  0.00000000E+00
  0.00000000E+00  0.00000000E+00  0.00000000E+00
  0.00000000E+00  0.00000000E+00  0.00000000E+00
  0.00000000E+00  0.00000000E+00  0.00000000E+00
  0.00000000E+00  0.00000000E+00  0.00000000E+00
  0.00000000E+00  0.00000000E+00  0.00000000E+00
  0.00000000E+00  0.00000000E+00  0.00000000E+00
  0.00000000E+00  0.00000000E+00  0.00000000E+00
  0.00000000E+00  0.00000000E+00  0.00000000E+00
