ba8 si16                                
   1.00000000000000     
    28.4981679999139033    0.0000000000000000    0.0000000000000000
     0.0000000000000000    6.6162644169054055    0.0000000000000000
     0.0000000000000000    0.0000000000000000   11.3440967564195265
   Ba   Si
    12    24
Direct
  0.0107333698814380  0.2500000000663931  0.6985476265395032
  0.1488399574366914  0.7500000176088264  0.1915865283060776
  0.1631914892040046  0.2500000000663931  0.8092852799902439
  0.3251063961074728  0.2500000000663931  0.6915865900317427
  0.3107548643050874  0.7500000176088264  0.3092852388642225
  0.4632129847148270  0.7500000176088264  0.1985475648138392
  0.0681241544052400  0.7500000176088264  0.9120121492350487
  0.1094021385480655  0.2500000000663931  0.3955798609769671
  0.2100290213320794  0.7500000176088264  0.5942666421234267
  0.3645442149960987  0.7500000176088264  0.8955797787637126
  0.2639173322120851  0.2500000000663931  0.0942666626239485
  0.4058221991389244  0.2500000000663931  0.4120122314483039
  0.0558738529061888  0.0692171961098831  0.1475226764954241
  0.0983955914201664  0.9305949115823112  0.6411866979433516
  0.2172778801199214  0.0672890976536325  0.3524226112237441
  0.0558738529061888  0.4307827950229981  0.1475226764954241
  0.2172778801199214  0.4327108934792489  0.3524226112237441
  0.0983955914201664  0.5694050883734220  0.6411866979433516
  0.3755507788174322  0.0694050795358116  0.1411866774169729
  0.2566684734242503  0.9327108934644911  0.8524226112366761
  0.4180724839094690  0.9307827950082402  0.6475226970218030
  0.2566684734242503  0.5672891064912421  0.8524226112366761
  0.3755507788174322  0.4305949115970699  0.1411866774169729
  0.4180724839094690  0.5692172049474929  0.6475226970218030
  0.0243152681332722  0.7500000176088264  0.6159178675366568
  0.1274471711773509  0.2500000000663931  0.0824334681415795
  0.1871147927166496  0.7500000176088264  0.9091370932361118
  0.3464991907135377  0.7500000176088264  0.5824335297810550
  0.2868315608275147  0.2500000000663931  0.4091370521100902
  0.4496310791683904  0.2500000000663931  0.1159178058971810
  0.0558812944420617  0.2500000000663931  0.9630146096747715
  0.0826602154896025  0.7500000176088264  0.4592982213916094
  0.2191528220442498  0.2500000000663931  0.5370455978742855
  0.3912861547830683  0.2500000000663931  0.9592983035445323
  0.2547935314999214  0.7500000176088264  0.0370456132895385
  0.4180650382002373  0.7500000176088264  0.4630145275218488
 
  0.00000000E+00  0.00000000E+00  0.00000000E+00
  0.00000000E+00  0.00000000E+00  0.00000000E+00
  0.00000000E+00  0.00000000E+00  0.00000000E+00
  0.00000000E+00  0.00000000E+00  0.00000000E+00
  0.00000000E+00  0.00000000E+00  0.00000000E+00
  0.00000000E+00  0.00000000E+00  0.00000000E+00
  0.00000000E+00  0.00000000E+00  0.00000000E+00
  0.00000000E+00  0.00000000E+00  0.00000000E+00
  0.00000000E+00  0.00000000E+00  0.00000000E+00
  0.00000000E+00  0.00000000E+00  0.00000000E+00
  0.00000000E+00  0.00000000E+00  0.00000000E+00
  0.00000000E+00  0.00000000E+00  0.00000000E+00
  0.00000000E+00  0.00000000E+00  0.00000000E+00
  0.00000000E+00  0.00000000E+00  0.00000000E+00
  0.00000000E+00  0.00000000E+00  0.00000000E+00
  0.00000000E+00  0.00000000E+00  0.00000000E+00
  0.00000000E+00  0.00000000E+00  0.00000000E+00
  0.00000000E+00  0.00000000E+00  0.00000000E+00
  0.00000000E+00  0.00000000E+00  0.00000000E+00
  0.00000000E+00  0.00000000E+00  0.00000000E+00
  0.00000000E+00  0.00000000E+00  0.00000000E+00
  0.00000000E+00  0.00000000E+00  0.00000000E+00
  0.00000000E+00  0.00000000E+00  0.00000000E+00
  0.00000000E+00  0.00000000E+00  0.00000000E+00
  0.00000000E+00  0.00000000E+00  0.00000000E+00
  0.00000000E+00  0.00000000E+00  0.00000000E+00
  0.00000000E+00  0.00000000E+00  0.00000000E+00
  0.00000000E+00  0.00000000E+00  0.00000000E+00
  0.00000000E+00  0.00000000E+00  0.00000000E+00
  0.00000000E+00  0.00000000E+00  0.00000000E+00
  0.00000000E+00  0.00000000E+00  0.00000000E+00
  0.00000000E+00  0.00000000E+00  0.00000000E+00
  0.00000000E+00  0.00000000E+00  0.00000000E+00
  0.00000000E+00  0.00000000E+00  0.00000000E+00
  0.00000000E+00  0.00000000E+00  0.00000000E+00
  0.00000000E+00  0.00000000E+00  0.00000000E+00
