ba8 si16                                
   1.00000000000000     
    41.8067441264431210    0.0000000000000000   -0.0005296467923959
     0.0000000000000000    6.6706677724599528    0.0000000000000000
    -0.0007238339837840    0.0000000000000000   11.4246044131135651
   Ba   Si
    24    48
Direct
  0.0077480280316309  0.2500000000663931  0.6995820829533708
  0.2180078507483580  0.2500000000663931  0.6899671962881617
  0.4322100134245510  0.2500000000663931  0.6911210300583142
  0.2108885214938218  0.7500000176088264  0.3088789699675423
  0.4250906387959351  0.7500000176088264  0.3100328037376947
  0.6353504622264666  0.7500000176088264  0.3004179170724853
  0.1012079076230077  0.7500000176088264  0.1920986384009987
  0.3180746563113859  0.7500000176088264  0.1904701237777836
  0.5320300417062523  0.7500000176088264  0.1914891599445401
  0.1110684932121133  0.2500000000663931  0.8085108194816735
  0.3250239013059141  0.2500000000663931  0.8095298556484303
  0.5418906272953650  0.2500000000663931  0.8079013410252149
  0.0460530180677478  0.7500000176088264  0.9115083221268206
  0.2491509075067601  0.7500000176088264  0.9060514383855075
  0.4639745347260757  0.7500000176088264  0.9069081883680260
  0.1791240115655496  0.2500000000663931  0.0930917910581877
  0.3939476047364676  0.2500000000663931  0.0939485410407057
  0.5970454941754796  0.2500000000663931  0.0884916572993932
  0.0742188477331742  0.2500000000663931  0.3949175004932131
  0.2872747334446337  0.2500000000663931  0.4051826242632994
  0.5010232522809450  0.2500000000663931  0.4049386648219847
  0.1420752599622828  0.7500000176088264  0.5950613763169621
  0.3558238014975281  0.7500000176088264  0.5948174168756472
  0.5688796644862574  0.7500000176088264  0.6050825406457332
  0.0385322906233759  0.0707413441208242  0.1455488655680501
  0.2551112000097837  0.0696625634919707  0.1463480615248326
  0.4687343651093169  0.0692791780233835  0.1459830843731766
  0.1743641698328519  0.9307208130947403  0.8540168951392330
  0.3879873349085892  0.9303374276261532  0.8536519179875771
  0.6045662329693222  0.9292586469972993  0.8544511139443597
  0.0666918567227121  0.9293369647509289  0.6411516796032523
  0.2805044069632673  0.9304507541931213  0.6460852135985081
  0.4950073540271800  0.9310679253683771  0.6473956778913585
  0.1480911695417219  0.0689320657497464  0.3526043221344981
  0.3625941279788946  0.0695492369250019  0.3539147864273481
  0.5764066441710450  0.0706630263671943  0.3588483204226044
  0.1743641698328519  0.5692791868609929  0.8540168951392330
  0.3879873349085892  0.5696625723295800  0.8536519179875771
  0.6045662329693222  0.5707413529584339  0.8544511139443597
  0.0385322906233759  0.4292586470120572  0.1455488655680501
  0.2551112000097837  0.4303374276409108  0.1463480615248326
  0.4687343651093169  0.4307208131094979  0.1459830843731766
  0.1480911695417219  0.4310679253831349  0.3526043221344981
  0.3625941279788946  0.4304507542078795  0.3539147864273481
  0.5764066441710450  0.4293369647656869  0.3588483204226044
  0.0666918567227121  0.5706630352048043  0.6411516796032523
  0.2805044069632673  0.5695492457626119  0.6460852135985081
  0.4950073540271800  0.5689320745873561  0.6473956778913585
  0.0161471563723428  0.7500000176088264  0.6175545527777413
  0.2324571868613279  0.7500000176088264  0.5916380174671452
  0.4471201633274341  0.7500000176088264  0.5924779924256754
  0.1959783262168664  0.2500000000663931  0.4075220075139925
  0.4106413026829728  0.2500000000663931  0.4083619824725224
  0.6269513743107973  0.2500000000663931  0.3824454471619262
  0.0874940398660237  0.2500000000663931  0.0824345107560970
  0.3032319976315757  0.2500000000663931  0.0921995118884325
  0.5164561849833654  0.2500000000663931  0.0915239713677383
  0.1266423499587963  0.7500000176088264  0.9084760080584753
  0.3398665146116518  0.7500000176088264  0.9078004675377811
  0.5556044950761383  0.7500000176088264  0.9175654686701168
  0.0389303810538606  0.2500000000663931  0.9622262094311874
  0.2561430993532829  0.2500000000663931  0.9639774848435098
  0.4704746121462723  0.2500000000663931  0.9627536879601648
  0.1726239227720937  0.7500000176088264  0.0372463274076810
  0.3869554582878132  0.7500000176088264  0.0360225305243360
  0.6041681623825625  0.7500000176088264  0.0377738059366580
  0.0555930059025992  0.7500000176088264  0.4605218872713102
  0.2796035606570718  0.7500000176088264  0.4636022800448445
  0.4941352056919429  0.7500000176088264  0.4646652105742309
  0.1489633405759009  0.2500000000663931  0.5353347072254385
  0.3634949515861558  0.2500000000663931  0.5363976377548253
  0.5875055176663029  0.2500000000663931  0.5394780305283603
 
  0.00000000E+00  0.00000000E+00  0.00000000E+00
  0.00000000E+00  0.00000000E+00  0.00000000E+00
  0.00000000E+00  0.00000000E+00  0.00000000E+00
  0.00000000E+00  0.00000000E+00  0.00000000E+00
  0.00000000E+00  0.00000000E+00  0.00000000E+00
  0.00000000E+00  0.00000000E+00  0.00000000E+00
  0.00000000E+00  0.00000000E+00  0.00000000E+00
  0.00000000E+00  0.00000000E+00  0.00000000E+00
  0.00000000E+00  0.00000000E+00  0.00000000E+00
  0.00000000E+00  0.00000000E+00  0.00000000E+00
  0.00000000E+00  0.00000000E+00  0.00000000E+00
  0.00000000E+00  0.00000000E+00  0.00000000E+00
  0.00000000E+00  0.00000000E+00  0.00000000E+00
  0.00000000E+00  0.00000000E+00  0.00000000E+00
  0.00000000E+00  0.00000000E+00  0.00000000E+00
  0.00000000E+00  0.00000000E+00  0.00000000E+00
  0.00000000E+00  0.00000000E+00  0.00000000E+00
  0.00000000E+00  0.00000000E+00  0.00000000E+00
  0.00000000E+00  0.00000000E+00  0.00000000E+00
  0.00000000E+00  0.00000000E+00  0.00000000E+00
  0.00000000E+00  0.00000000E+00  0.00000000E+00
  0.00000000E+00  0.00000000E+00  0.00000000E+00
  0.00000000E+00  0.00000000E+00  0.00000000E+00
  0.00000000E+00  0.00000000E+00  0.00000000E+00
  0.00000000E+00  0.00000000E+00  0.00000000E+00
  0.00000000E+00  0.00000000E+00  0.00000000E+00
  0.00000000E+00  0.00000000E+00  0.00000000E+00
  0.00000000E+00  0.00000000E+00  0.00000000E+00
  0.00000000E+00  0.00000000E+00  0.00000000E+00
  0.00000000E+00  0.00000000E+00  0.00000000E+00
  0.00000000E+00  0.00000000E+00  0.00000000E+00
  0.00000000E+00  0.00000000E+00  0.00000000E+00
  0.00000000E+00  0.00000000E+00  0.00000000E+00
  0.00000000E+00  0.00000000E+00  0.00000000E+00
  0.00000000E+00  0.00000000E+00  0.00000000E+00
  0.00000000E+00  0.00000000E+00  0.00000000E+00
  0.00000000E+00  0.00000000E+00  0.00000000E+00
  0.00000000E+00  0.00000000E+00  0.00000000E+00
  0.00000000E+00  0.00000000E+00  0.00000000E+00
  0.00000000E+00  0.00000000E+00  0.00000000E+00
  0.00000000E+00  0.00000000E+00  0.00000000E+00
  0.00000000E+00  0.00000000E+00  0.00000000E+00
  0.00000000E+00  0.00000000E+00  0.00000000E+00
  0.00000000E+00  0.00000000E+00  0.00000000E+00
  0.00000000E+00  0.00000000E+00  0.00000000E+00
  0.00000000E+00  0.00000000E+00  0.00000000E+00
  0.00000000E+00  0.00000000E+00  0.00000000E+00
  0.00000000E+00  0.00000000E+00  0.00000000E+00
  0.00000000E+00  0.00000000E+00  0.00000000E+00
  0.00000000E+00  0.00000000E+00  0.00000000E+00
  0.00000000E+00  0.00000000E+00  0.00000000E+00
  0.00000000E+00  0.00000000E+00  0.00000000E+00
  0.00000000E+00  0.00000000E+00  0.00000000E+00
  0.00000000E+00  0.00000000E+00  0.00000000E+00
  0.00000000E+00  0.00000000E+00  0.00000000E+00
  0.00000000E+00  0.00000000E+00  0.00000000E+00
  0.00000000E+00  0.00000000E+00  0.00000000E+00
  0.00000000E+00  0.00000000E+00  0.00000000E+00
  0.00000000E+00  0.00000000E+00  0.00000000E+00
  0.00000000E+00  0.00000000E+00  0.00000000E+00
  0.00000000E+00  0.00000000E+00  0.00000000E+00
  0.00000000E+00  0.00000000E+00  0.00000000E+00
  0.00000000E+00  0.00000000E+00  0.00000000E+00
  0.00000000E+00  0.00000000E+00  0.00000000E+00
  0.00000000E+00  0.00000000E+00  0.00000000E+00
  0.00000000E+00  0.00000000E+00  0.00000000E+00
  0.00000000E+00  0.00000000E+00  0.00000000E+00
  0.00000000E+00  0.00000000E+00  0.00000000E+00
  0.00000000E+00  0.00000000E+00  0.00000000E+00
  0.00000000E+00  0.00000000E+00  0.00000000E+00
  0.00000000E+00  0.00000000E+00  0.00000000E+00
  0.00000000E+00  0.00000000E+00  0.00000000E+00
