ba8 si16                                
   1.00000000000000     
    46.2638585768016739    0.0000000000000000    0.0000000000000000
     0.0000000000000000    6.6768609479598782    0.0000000000000000
     0.0000000000000000    0.0000000000000000   11.4355519792322422
   Ba   Si
    28    56
Direct
  0.0070827901761684  0.2500000000663931  0.7005364470776706
  0.1969883195284589  0.2500000000663931  0.6900521305890797
  0.3904105787686538  0.2500000000663931  0.6906026239424132
  0.5861108644391924  0.2500000000663931  0.6926535756285248
  0.1904721271621589  0.7500000176088264  0.3087088980906695
  0.3841813925298780  0.7500000176088264  0.3091225728608502
  0.5773193463715786  0.7500000176088264  0.3088288309756250
  0.0915381936258575  0.7500000176088264  0.1926535139028604
  0.2872384793178833  0.7500000176088264  0.1906025622167483
  0.4806607795396252  0.7500000176088264  0.1900520688634146
  0.6705663095366267  0.7500000176088264  0.2005363853520060
  0.1003297526750190  0.2500000000663931  0.8088288721016468
  0.2934677065382061  0.2500000000663931  0.8091226139868714
  0.4871769309028914  0.2500000000663931  0.8087089392166915
  0.0415627284659878  0.7500000176088264  0.9123537550623315
  0.2250523863269927  0.7500000176088264  0.9058391078934620
  0.4181147998638214  0.7500000176088264  0.9049946309206102
  0.6106216554728496  0.7500000176088264  0.8957434953577464
  0.1617926475296648  0.2500000000663931  0.0931178183323172
  0.3561264504282061  0.2500000000663931  0.0937775874353994
  0.5493381105879159  0.2500000000663931  0.0953297477632315
  0.0670274230937175  0.2500000000663931  0.3957435775710014
  0.2595342787027458  0.2500000000663931  0.4049947131338650
  0.4525966922610615  0.2500000000663931  0.4058391901067165
  0.6360863501005797  0.2500000000663931  0.4123538372755861
  0.1283109679786515  0.7500000176088264  0.5953297272627093
  0.3215226281383611  0.7500000176088264  0.5937775669348773
  0.5158564310369024  0.7500000176088264  0.5931177978317953
  0.0349775694356822  0.0708664005590151  0.1462003627629982
  0.2304502104089956  0.0697871221872953  0.1461219689866720
  0.4241977289061576  0.0696797888616016  0.1455710547004208
  0.6174537173601663  0.0709232436949521  0.1420953382765976
  0.1574433577554244  0.9306446771234006  0.8538820502193402
  0.3500526655602442  0.9302942286640633  0.8532221211669353
  0.5438456790488722  0.9308390657557573  0.8529224532244313
  0.0601953509556429  0.9290767474231717  0.6420953588029765
  0.2534513291588927  0.9303202022565219  0.6455710752267996
  0.4471988476560546  0.9302128689308282  0.6461219895130510
  0.6426714784001035  0.9291335905591084  0.6462003832893769
  0.1338033687654199  0.0691609253623662  0.3529224532114995
  0.3275964335078399  0.0697057624540602  0.3532221211540039
  0.5202057515634255  0.0693553139947226  0.3538820502064087
  0.1574433577554244  0.5693553228323326  0.8538820502193402
  0.3500526655602442  0.5697057712916699  0.8532221211669353
  0.5438456790488722  0.5691609341999759  0.8529224532244313
  0.0349775694356822  0.4291335905738666  0.1462003627629982
  0.2304502104089956  0.4302128689455862  0.1461219689866720
  0.4241977289061576  0.4303202022712799  0.1455710547004208
  0.6174537173601663  0.4290767474379292  0.1420953382765976
  0.1338033687654199  0.4308390657705152  0.3529224532114995
  0.3275964335078399  0.4302942286788212  0.3532221211540039
  0.5202057515634255  0.4306446771381586  0.3538820502064087
  0.0601953509556429  0.5709232525325615  0.6420953588029765
  0.2534513291588927  0.5696797976992113  0.6455710752267996
  0.4471988476560546  0.5697871310249050  0.6461219895130510
  0.6426714784001035  0.5708664093966248  0.6462003832893769
  0.0145274748560376  0.7500000176088264  0.6177057794243930
  0.2100123454870025  0.7500000176088264  0.5915435922927540
  0.4037024784704379  0.7500000176088264  0.5920769426221181
  0.5984694487340362  0.7500000176088264  0.5829881515638146
  0.1770993798567500  0.2500000000663931  0.4076956124517228
  0.3709699146378462  0.2500000000663931  0.4080766431206422
  0.5632679432570493  0.2500000000663931  0.4089137872833849
  0.0791796554486839  0.2500000000663931  0.0829880899243388
  0.2739466205976462  0.2500000000663931  0.0920768809826423
  0.4676367125780478  0.2500000000663931  0.0915435306532786
  0.6631215793837774  0.2500000000663931  0.1177057177849173
  0.1143811148294879  0.7500000176088264  0.9089138284094067
  0.3066791434272041  0.7500000176088264  0.9080766842466637
  0.5005497192113341  0.7500000176088264  0.9076956535777444
  0.0352542614654766  0.2500000000663931  0.9630430810682449
  0.2313717583278174  0.2500000000663931  0.9639276911403648
  0.4250679038090928  0.2500000000663931  0.9633274095921981
  0.6272914706590480  0.2500000000663931  0.9614267678841002
  0.1560296898326059  0.7500000176088264  0.0369181611647575
  0.3493421660812419  0.7500000176088264  0.0355910308395110
  0.5430519041369624  0.7500000176088264  0.0354622888090457
  0.0503576181582776  0.7500000176088264  0.4614266857311775
  0.2525811747574744  0.7500000176088264  0.4633273274392757
  0.4462773202602437  0.7500000176088264  0.4639276089874426
  0.6423948042930107  0.7500000176088264  0.4630429989153223
  0.1345971641788465  0.2500000000663931  0.5354622733937926
  0.3283069124853253  0.2500000000663931  0.5355910154242578
  0.5216193989847271  0.2500000000663931  0.5369181457495046
 
  0.00000000E+00  0.00000000E+00  0.00000000E+00
  0.00000000E+00  0.00000000E+00  0.00000000E+00
  0.00000000E+00  0.00000000E+00  0.00000000E+00
  0.00000000E+00  0.00000000E+00  0.00000000E+00
  0.00000000E+00  0.00000000E+00  0.00000000E+00
  0.00000000E+00  0.00000000E+00  0.00000000E+00
  0.00000000E+00  0.00000000E+00  0.00000000E+00
  0.00000000E+00  0.00000000E+00  0.00000000E+00
  0.00000000E+00  0.00000000E+00  0.00000000E+00
  0.00000000E+00  0.00000000E+00  0.00000000E+00
  0.00000000E+00  0.00000000E+00  0.00000000E+00
  0.00000000E+00  0.00000000E+00  0.00000000E+00
  0.00000000E+00  0.00000000E+00  0.00000000E+00
  0.00000000E+00  0.00000000E+00  0.00000000E+00
  0.00000000E+00  0.00000000E+00  0.00000000E+00
  0.00000000E+00  0.00000000E+00  0.00000000E+00
  0.00000000E+00  0.00000000E+00  0.00000000E+00
  0.00000000E+00  0.00000000E+00  0.00000000E+00
  0.00000000E+00  0.00000000E+00  0.00000000E+00
  0.00000000E+00  0.00000000E+00  0.00000000E+00
  0.00000000E+00  0.00000000E+00  0.00000000E+00
  0.00000000E+00  0.00000000E+00  0.00000000E+00
  0.00000000E+00  0.00000000E+00  0.00000000E+00
  0.00000000E+00  0.00000000E+00  0.00000000E+00
  0.00000000E+00  0.00000000E+00  0.00000000E+00
  0.00000000E+00  0.00000000E+00  0.00000000E+00
  0.00000000E+00  0.00000000E+00  0.00000000E+00
  0.00000000E+00  0.00000000E+00  0.00000000E+00
  0.00000000E+00  0.00000000E+00  0.00000000E+00
  0.00000000E+00  0.00000000E+00  0.00000000E+00
  0.00000000E+00  0.00000000E+00  0.00000000E+00
  0.00000000E+00  0.00000000E+00  0.00000000E+00
  0.00000000E+00  0.00000000E+00  0.00000000E+00
  0.00000000E+00  0.00000000E+00  0.00000000E+00
  0.00000000E+00  0.00000000E+00  0.00000000E+00
  0.00000000E+00  0.00000000E+00  0.00000000E+00
  0.00000000E+00  0.00000000E+00  0.00000000E+00
  0.00000000E+00  0.00000000E+00  0.00000000E+00
  0.00000000E+00  0.00000000E+00  0.00000000E+00
  0.00000000E+00  0.00000000E+00  0.00000000E+00
  0.00000000E+00  0.00000000E+00  0.00000000E+00
  0.00000000E+00  0.00000000E+00  0.00000000E+00
  0.00000000E+00  0.00000000E+00  0.00000000E+00
  0.00000000E+00  0.00000000E+00  0.00000000E+00
  0.00000000E+00  0.00000000E+00  0.00000000E+00
  0.00000000E+00  0.00000000E+00  0.00000000E+00
  0.00000000E+00  0.00000000E+00  0.00000000E+00
  0.00000000E+00  0.00000000E+00  0.00000000E+00
  0.00000000E+00  0.00000000E+00  0.00000000E+00
  0.00000000E+00  0.00000000E+00  0.00000000E+00
  0.00000000E+00  0.00000000E+00  0.00000000E+00
  0.00000000E+00  0.00000000E+00  0.00000000E+00
  0.00000000E+00  0.00000000E+00  0.00000000E+00
  0.00000000E+00  0.00000000E+00  0.00000000E+00
  0.00000000E+00  0.00000000E+00  0.00000000E+00
  0.00000000E+00  0.00000000E+00  0.00000000E+00
  0.00000000E+00  0.00000000E+00  0.00000000E+00
  0.00000000E+00  0.00000000E+00  0.00000000E+00
  0.00000000E+00  0.00000000E+00  0.00000000E+00
  0.00000000E+00  0.00000000E+00  0.00000000E+00
  0.00000000E+00  0.00000000E+00  0.00000000E+00
  0.00000000E+00  0.00000000E+00  0.00000000E+00
  0.00000000E+00  0.00000000E+00  0.00000000E+00
  0.00000000E+00  0.00000000E+00  0.00000000E+00
  0.00000000E+00  0.00000000E+00  0.00000000E+00
  0.00000000E+00  0.00000000E+00  0.00000000E+00
  0.00000000E+00  0.00000000E+00  0.00000000E+00
  0.00000000E+00  0.00000000E+00  0.00000000E+00
  0.00000000E+00  0.00000000E+00  0.00000000E+00
  0.00000000E+00  0.00000000E+00  0.00000000E+00
  0.00000000E+00  0.00000000E+00  0.00000000E+00
  0.00000000E+00  0.00000000E+00  0.00000000E+00
  0.00000000E+00  0.00000000E+00  0.00000000E+00
  0.00000000E+00  0.00000000E+00  0.00000000E+00
  0.00000000E+00  0.00000000E+00  0.00000000E+00
  0.00000000E+00  0.00000000E+00  0.00000000E+00
  0.00000000E+00  0.00000000E+00  0.00000000E+00
  0.00000000E+00  0.00000000E+00  0.00000000E+00
  0.00000000E+00  0.00000000E+00  0.00000000E+00
  0.00000000E+00  0.00000000E+00  0.00000000E+00
  0.00000000E+00  0.00000000E+00  0.00000000E+00
  0.00000000E+00  0.00000000E+00  0.00000000E+00
  0.00000000E+00  0.00000000E+00  0.00000000E+00
  0.00000000E+00  0.00000000E+00  0.00000000E+00
