ba8 si16                                
   1.00000000000000     
    68.5039440521647265    0.0000000000000000    0.0044401587673685
     0.0000000000000000    6.6960694817348179    0.0000000000000000
     0.0006566652072239    0.0000000000000000   11.4633199515351425
   Ba   Si
    48    96
Direct
  0.0048534602752727  0.2500000000663931  0.7007404942399157
  0.1327151747256728  0.2500000000663931  0.6905174918773722
  0.2629847362148278  0.2500000000663931  0.6914942217540895
  0.3935074489586189  0.2500000000663931  0.6911522628339117
  0.5239540368173319  0.2500000000663931  0.6912813448012372
  0.6543802107061388  0.2500000000663931  0.6918165223307116
  0.1284073045922705  0.7500000176088264  0.3081834776951452
  0.2588335199107281  0.7500000176088264  0.3087186552246195
  0.3892800801545032  0.7500000176088264  0.3088477371919449
  0.5198028205132396  0.7500000176088264  0.3085057782717670
  0.6500723682021553  0.7500000176088264  0.3094825081484844
  0.7779340830725076  0.7500000176088264  0.2992595057859412
  0.0617127025307962  0.7500000176088264  0.1927669999158442
  0.1935299068782826  0.7500000176088264  0.1910563710481773
  0.3241010170425258  0.7500000176088264  0.1915328303281152
  0.4545208834603350  0.7500000176088264  0.1913073318424365
  0.5850047864880072  0.7500000176088264  0.1910424177466483
  0.7151274735776054  0.7500000176088264  0.1920115263725188
  0.0676600693357490  0.2500000000663931  0.8079884530536946
  0.1977827702400596  0.2500000000663931  0.8089575616795658
  0.3282666732677321  0.2500000000663931  0.8086926475837773
  0.4586865120705892  0.2500000000663931  0.8084671490980982
  0.5892576222203586  0.2500000000663931  0.8089436083780367
  0.7210748127676129  0.2500000000663931  0.8072329795103698
  0.0279179412243582  0.7500000176088264  0.9117925687078107
  0.1517132577425535  0.7500000176088264  0.9060066413205824
  0.2819121089859003  0.7500000176088264  0.9062433222421306
  0.4123979325259071  0.7500000176088264  0.9059244132924726
  0.5427519167902786  0.7500000176088264  0.9058245983944681
  0.6738753223104967  0.7500000176088264  0.9071238848914784
  0.1089121722803167  0.2500000000663931  0.0928760945347353
  0.2400356399377882  0.2500000000663931  0.0941753810317461
  0.3703895965872150  0.2500000000663931  0.0940755661337413
  0.5008754201272216  0.2500000000663931  0.0937566571840838
  0.6310742437556238  0.2500000000663931  0.0939933381056316
  0.7548695602593309  0.2500000000663931  0.0882074107184027
  0.0451849417442021  0.2500000000663931  0.3952185030931371
  0.1747418381287490  0.2500000000663931  0.4050847286520371
  0.3051641642245543  0.2500000000663931  0.4062048412457430
  0.4357399450898749  0.2500000000663931  0.4057965886557276
  0.5660794993129903  0.2500000000663931  0.4061128816409118
  0.6961859434932954  0.2500000000663931  0.4049353269256258
  0.0866015579904006  0.7500000176088264  0.5950647142133206
  0.2167080712297898  0.7500000176088264  0.5938871594980349
  0.3470475840087592  0.7500000176088264  0.5942034524832187
  0.4776233925035128  0.7500000176088264  0.5937951998932037
  0.6080457185993181  0.7500000176088264  0.5949153124869093
  0.7376026149838647  0.7500000176088264  0.6047815380458096
  0.0236964065591871  0.0713234016974914  0.1450684069020483
  0.1553093828111029  0.0701892330164824  0.1457925614995660
  0.2860525551665695  0.0701883751058163  0.1464705734062796
  0.4164135736891510  0.0701148941721627  0.1463135423646616
  0.5468521269729267  0.0701138911844346  0.1460300338014619
  0.6767246459553412  0.0697412606525288  0.1458535662259330
  0.1060628417281230  0.9302587304655947  0.8541464132864768
  0.2359354297551329  0.9298860999336890  0.8539699457109478
  0.3663739554239711  0.9298850969459606  0.8536864371477481
  0.4967349739465526  0.9298116160123072  0.8535294061061299
  0.6274781324872989  0.9298107581016410  0.8542074180128438
  0.7590911018318656  0.9286765894206319  0.8549315726103618
  0.0406206802429283  0.9285760161125447  0.6416500255033893
  0.1707274801493124  0.9299363143800152  0.6456517204782403
  0.3010514397161818  0.9298520963670621  0.6464449239654235
  0.4316297532392830  0.9298852690524452  0.6459892029246300
  0.5620675591194584  0.9299128581433408  0.6465120597510436
  0.6925089850040589  0.9304970430191932  0.6470444724379237
  0.0902785233869942  0.0695029480989304  0.3529555275879327
  0.2207200114233216  0.0700871329747829  0.3534879402748131
  0.3511577758738391  0.0701147220656785  0.3540107971012271
  0.4817361170118782  0.0701478947510613  0.3535550760604331
  0.6120600765787546  0.0700636767381082  0.3543482795476166
  0.7421668695777826  0.0714239750055788  0.3583499745224673
  0.1060628417281230  0.5697412694901385  0.8541464132864768
  0.2359354297551329  0.5701139000220442  0.8539699457109478
  0.3663739554239711  0.5701149030097726  0.8536864371477481
  0.4967349739465526  0.5701883839434260  0.8535294061061299
  0.6274781324872989  0.5701892418540921  0.8542074180128438
  0.7590911018318656  0.5713234105351013  0.8549315726103618
  0.0236964065591871  0.4286765894353898  0.1450684069020483
  0.1553093828111029  0.4298107581163989  0.1457925614995660
  0.2860525551665695  0.4298116160270651  0.1464705734062796
  0.4164135736891510  0.4298850969607188  0.1463135423646616
  0.5468521269729267  0.4298860999484465  0.1460300338014619
  0.6767246459553412  0.4302587304803526  0.1458535662259330
  0.0902785233869942  0.4304970430339510  0.3529555275879327
  0.2207200114233216  0.4299128581580985  0.3534879402748131
  0.3511577758738391  0.4298852690672029  0.3540107971012271
  0.4817361170118782  0.4298520963818204  0.3535550760604331
  0.6120600765787546  0.4299363143947732  0.3543482795476166
  0.7421668695777826  0.4285760161273027  0.3583499745224673
  0.0406206802429283  0.5714239838431885  0.6416500255033893
  0.1707274801493124  0.5700636855757180  0.6456517204782403
  0.3010514397161818  0.5701479035886711  0.6464449239654235
  0.4316297532392830  0.5701147309032880  0.6459892029246300
  0.5620675591194584  0.5700871418123924  0.6465120597510436
  0.6925089850040589  0.5695029569365400  0.6470444724379237
  0.0097399943943929  0.7500000176088264  0.6177328143589693
  0.1414124018159802  0.7500000176088264  0.5915700645695396
  0.2717109552983721  0.7500000176088264  0.5919653550793733
  0.4023010273403022  0.7500000176088264  0.5915651794481228
  0.5327688024550620  0.7500000176088264  0.5917256019947332
  0.6632778028054022  0.7500000176088264  0.5923645209692996
  0.1195097124930002  0.2500000000663931  0.4076354789703681
  0.2500186990286348  0.2500000000663931  0.4082743979449352
  0.3804865017728128  0.2500000000663931  0.4084348204915452
  0.5110765738147497  0.2500000000663931  0.4080346448602944
  0.6413751410973739  0.2500000000663931  0.4084299353701283
  0.7730474906969973  0.2500000000663931  0.3822671855806985
  0.0535835553367551  0.2500000000663931  0.0823717616598110
  0.1846738677213315  0.2500000000663931  0.0916242246403930
  0.3153850036817005  0.2500000000663931  0.0918240762417242
  0.4457273609420992  0.2500000000663931  0.0916827706398630
  0.5761630734225394  0.2500000000663931  0.0915520974889699
  0.7058130417572883  0.2500000000663931  0.0909534708742042
  0.0769744459261690  0.7500000176088264  0.9090465085520094
  0.2066244556905830  0.7500000176088264  0.9084478819372439
  0.3370601681710229  0.7500000176088264  0.9083172087863507
  0.4674025254314216  0.7500000176088264  0.9081759031844894
  0.5981137166216808  0.7500000176088264  0.9083757547858210
  0.7292039599616468  0.7500000176088264  0.9176282177664027
  0.0239378041248107  0.2500000000663931  0.9623428621312913
  0.1558775517238381  0.2500000000663931  0.9639625691633119
  0.2865837079942971  0.2500000000663931  0.9644931618085464
  0.4169075563879795  0.2500000000663931  0.9643836822854549
  0.5473924832052520  0.2500000000663931  0.9640210804389044
  0.6776852384575049  0.2500000000663931  0.9631868158216793
  0.1051022768409038  0.7500000176088264  0.0368131995461661
  0.2353951011522339  0.7500000176088264  0.0359789349289413
  0.3658799727106617  0.7500000176088264  0.0356163330823909
  0.4962038487337700  0.7500000176088264  0.0355068535592998
  0.6269100050042289  0.7500000176088264  0.0360374462045340
  0.7588496887283067  0.7500000176088264  0.0376571532365544
  0.0338946224219437  0.7500000176088264  0.4614345354798297
  0.1702069908090884  0.7500000176088264  0.4638422418418427
  0.3005181430511707  0.7500000176088264  0.4644959825459470
  0.4310901361924201  0.7500000176088264  0.4640544198546581
  0.5616001133806613  0.7500000176088264  0.4645501191171004
  0.6920045958217482  0.7500000176088264  0.4648832238021133
  0.0907829539989624  0.2500000000663931  0.5351166939975563
  0.2211874295326858  0.2500000000663931  0.5354497986825695
  0.3516974205356470  0.2500000000663931  0.5359454979450121
  0.4822693860619514  0.2500000000663931  0.5355039352537224
  0.6125805797336843  0.2500000000663931  0.5361576759578275
  0.7488928859691091  0.2500000000663931  0.5385653823198402
 
  0.00000000E+00  0.00000000E+00  0.00000000E+00
  0.00000000E+00  0.00000000E+00  0.00000000E+00
  0.00000000E+00  0.00000000E+00  0.00000000E+00
  0.00000000E+00  0.00000000E+00  0.00000000E+00
  0.00000000E+00  0.00000000E+00  0.00000000E+00
  0.00000000E+00  0.00000000E+00  0.00000000E+00
  0.00000000E+00  0.00000000E+00  0.00000000E+00
  0.00000000E+00  0.00000000E+00  0.00000000E+00
  0.00000000E+00  0.00000000E+00  0.00000000E+00
  0.00000000E+00  0.00000000E+00  0.00000000E+00
  0.00000000E+00  0.00000000E+00  0.00000000E+00
  0.00000000E+00  0.00000000E+00  0.00000000E+00
  0.00000000E+00  0.00000000E+00  0.00000000E+00
  0.00000000E+00  0.00000000E+00  0.00000000E+00
  0.00000000E+00  0.00000000E+00  0.00000000E+00
  0.00000000E+00  0.00000000E+00  0.00000000E+00
  0.00000000E+00  0.00000000E+00  0.00000000E+00
  0.00000000E+00  0.00000000E+00  0.00000000E+00
  0.00000000E+00  0.00000000E+00  0.00000000E+00
  0.00000000E+00  0.00000000E+00  0.00000000E+00
  0.00000000E+00  0.00000000E+00  0.00000000E+00
  0.00000000E+00  0.00000000E+00  0.00000000E+00
  0.00000000E+00  0.00000000E+00  0.00000000E+00
  0.00000000E+00  0.00000000E+00  0.00000000E+00
  0.00000000E+00  0.00000000E+00  0.00000000E+00
  0.00000000E+00  0.00000000E+00  0.00000000E+00
  0.00000000E+00  0.00000000E+00  0.00000000E+00
  0.00000000E+00  0.00000000E+00  0.00000000E+00
  0.00000000E+00  0.00000000E+00  0.00000000E+00
  0.00000000E+00  0.00000000E+00  0.00000000E+00
  0.00000000E+00  0.00000000E+00  0.00000000E+00
  0.00000000E+00  0.00000000E+00  0.00000000E+00
  0.00000000E+00  0.00000000E+00  0.00000000E+00
  0.00000000E+00  0.00000000E+00  0.00000000E+00
  0.00000000E+00  0.00000000E+00  0.00000000E+00
  0.00000000E+00  0.00000000E+00  0.00000000E+00
  0.00000000E+00  0.00000000E+00  0.00000000E+00
  0.00000000E+00  0.00000000E+00  0.00000000E+00
  0.00000000E+00  0.00000000E+00  0.00000000E+00
  0.00000000E+00  0.00000000E+00  0.00000000E+00
  0.00000000E+00  0.00000000E+00  0.00000000E+00
  0.00000000E+00  0.00000000E+00  0.00000000E+00
  0.00000000E+00  0.00000000E+00  0.00000000E+00
  0.00000000E+00  0.00000000E+00  0.00000000E+00
  0.00000000E+00  0.00000000E+00  0.00000000E+00
  0.00000000E+00  0.00000000E+00  0.00000000E+00
  0.00000000E+00  0.00000000E+00  0.00000000E+00
  0.00000000E+00  0.00000000E+00  0.00000000E+00
  0.00000000E+00  0.00000000E+00  0.00000000E+00
  0.00000000E+00  0.00000000E+00  0.00000000E+00
  0.00000000E+00  0.00000000E+00  0.00000000E+00
  0.00000000E+00  0.00000000E+00  0.00000000E+00
  0.00000000E+00  0.00000000E+00  0.00000000E+00
  0.00000000E+00  0.00000000E+00  0.00000000E+00
  0.00000000E+00  0.00000000E+00  0.00000000E+00
  0.00000000E+00  0.00000000E+00  0.00000000E+00
  0.00000000E+00  0.00000000E+00  0.00000000E+00
  0.00000000E+00  0.00000000E+00  0.00000000E+00
  0.00000000E+00  0.00000000E+00  0.00000000E+00
  0.00000000E+00  0.00000000E+00  0.00000000E+00
  0.00000000E+00  0.00000000E+00  0.00000000E+00
  0.00000000E+00  0.00000000E+00  0.00000000E+00
  0.00000000E+00  0.00000000E+00  0.00000000E+00
  0.00000000E+00  0.00000000E+00  0.00000000E+00
  0.00000000E+00  0.00000000E+00  0.00000000E+00
  0.00000000E+00  0.00000000E+00  0.00000000E+00
  0.00000000E+00  0.00000000E+00  0.00000000E+00
  0.00000000E+00  0.00000000E+00  0.00000000E+00
  0.00000000E+00  0.00000000E+00  0.00000000E+00
  0.00000000E+00  0.00000000E+00  0.00000000E+00
  0.00000000E+00  0.00000000E+00  0.00000000E+00
  0.00000000E+00  0.00000000E+00  0.00000000E+00
  0.00000000E+00  0.00000000E+00  0.00000000E+00
  0.00000000E+00  0.00000000E+00  0.00000000E+00
  0.00000000E+00  0.00000000E+00  0.00000000E+00
  0.00000000E+00  0.00000000E+00  0.00000000E+00
  0.00000000E+00  0.00000000E+00  0.00000000E+00
  0.00000000E+00  0.00000000E+00  0.00000000E+00
  0.00000000E+00  0.00000000E+00  0.00000000E+00
  0.00000000E+00  0.00000000E+00  0.00000000E+00
  0.00000000E+00  0.00000000E+00  0.00000000E+00
  0.00000000E+00  0.00000000E+00  0.00000000E+00
  0.00000000E+00  0.00000000E+00  0.00000000E+00
  0.00000000E+00  0.00000000E+00  0.00000000E+00
  0.00000000E+00  0.00000000E+00  0.00000000E+00
  0.00000000E+00  0.00000000E+00  0.00000000E+00
  0.00000000E+00  0.00000000E+00  0.00000000E+00
  0.00000000E+00  0.00000000E+00  0.00000000E+00
  0.00000000E+00  0.00000000E+00  0.00000000E+00
  0.00000000E+00  0.00000000E+00  0.00000000E+00
  0.00000000E+00  0.00000000E+00  0.00000000E+00
  0.00000000E+00  0.00000000E+00  0.00000000E+00
  0.00000000E+00  0.00000000E+00  0.00000000E+00
  0.00000000E+00  0.00000000E+00  0.00000000E+00
  0.00000000E+00  0.00000000E+00  0.00000000E+00
  0.00000000E+00  0.00000000E+00  0.00000000E+00
  0.00000000E+00  0.00000000E+00  0.00000000E+00
  0.00000000E+00  0.00000000E+00  0.00000000E+00
  0.00000000E+00  0.00000000E+00  0.00000000E+00
  0.00000000E+00  0.00000000E+00  0.00000000E+00
  0.00000000E+00  0.00000000E+00  0.00000000E+00
  0.00000000E+00  0.00000000E+00  0.00000000E+00
  0.00000000E+00  0.00000000E+00  0.00000000E+00
  0.00000000E+00  0.00000000E+00  0.00000000E+00
  0.00000000E+00  0.00000000E+00  0.00000000E+00
  0.00000000E+00  0.00000000E+00  0.00000000E+00
  0.00000000E+00  0.00000000E+00  0.00000000E+00
  0.00000000E+00  0.00000000E+00  0.00000000E+00
  0.00000000E+00  0.00000000E+00  0.00000000E+00
  0.00000000E+00  0.00000000E+00  0.00000000E+00
  0.00000000E+00  0.00000000E+00  0.00000000E+00
  0.00000000E+00  0.00000000E+00  0.00000000E+00
  0.00000000E+00  0.00000000E+00  0.00000000E+00
  0.00000000E+00  0.00000000E+00  0.00000000E+00
  0.00000000E+00  0.00000000E+00  0.00000000E+00
  0.00000000E+00  0.00000000E+00  0.00000000E+00
  0.00000000E+00  0.00000000E+00  0.00000000E+00
  0.00000000E+00  0.00000000E+00  0.00000000E+00
  0.00000000E+00  0.00000000E+00  0.00000000E+00
  0.00000000E+00  0.00000000E+00  0.00000000E+00
  0.00000000E+00  0.00000000E+00  0.00000000E+00
  0.00000000E+00  0.00000000E+00  0.00000000E+00
  0.00000000E+00  0.00000000E+00  0.00000000E+00
  0.00000000E+00  0.00000000E+00  0.00000000E+00
  0.00000000E+00  0.00000000E+00  0.00000000E+00
  0.00000000E+00  0.00000000E+00  0.00000000E+00
  0.00000000E+00  0.00000000E+00  0.00000000E+00
  0.00000000E+00  0.00000000E+00  0.00000000E+00
  0.00000000E+00  0.00000000E+00  0.00000000E+00
  0.00000000E+00  0.00000000E+00  0.00000000E+00
  0.00000000E+00  0.00000000E+00  0.00000000E+00
  0.00000000E+00  0.00000000E+00  0.00000000E+00
  0.00000000E+00  0.00000000E+00  0.00000000E+00
  0.00000000E+00  0.00000000E+00  0.00000000E+00
  0.00000000E+00  0.00000000E+00  0.00000000E+00
  0.00000000E+00  0.00000000E+00  0.00000000E+00
  0.00000000E+00  0.00000000E+00  0.00000000E+00
  0.00000000E+00  0.00000000E+00  0.00000000E+00
  0.00000000E+00  0.00000000E+00  0.00000000E+00
  0.00000000E+00  0.00000000E+00  0.00000000E+00
  0.00000000E+00  0.00000000E+00  0.00000000E+00
  0.00000000E+00  0.00000000E+00  0.00000000E+00
  0.00000000E+00  0.00000000E+00  0.00000000E+00
  0.00000000E+00  0.00000000E+00  0.00000000E+00
