ba8 si16                                
   1.00000000000000     
    32.9128543972180125    0.0000000000000000   -0.0333642027309189
     0.0000000000000000    6.6440629518983423    0.0000000000000000
    -0.0128945924570537    0.0000000000000000   11.3876752935122489
   Ba   Si
    16    32
Direct
  0.0094273700313477  0.2500000000663931  0.6979930313009777
  0.5362878842461838  0.7500000176088264  0.3020069687248790
  0.1288422212286802  0.7500000176088264  0.1911610836257203
  0.1413252906680367  0.2500000000663931  0.8084325875428644
  0.2776467770452050  0.2500000000663931  0.6898367324297299
  0.2680684474312408  0.7500000176088264  0.3101632675961268
  0.4043899338084162  0.7500000176088264  0.1915673918833494
  0.4168730032477727  0.2500000000663931  0.8088388958004935
  0.0589603806806195  0.7500000176088264  0.9106877258308550
  0.4867548437958336  0.2500000000663931  0.0893122535953586
  0.0943753313747616  0.2500000000663931  0.3945324681913974
  0.1802992521272841  0.7500000176088264  0.5956887125949584
  0.3181301576044890  0.7500000176088264  0.9068608472187545
  0.2275850669022474  0.2500000000663931  0.0931391322074592
  0.3654159723491615  0.2500000000663931  0.4043113285439882
  0.4513398931016839  0.7500000176088264  0.6054675729475490
  0.0487656747165263  0.0699761404537687  0.1451914551134725
  0.4969495642061841  0.9300238506643548  0.8548085243989374
  0.0846177658361935  0.9300673031799913  0.6404275121017319
  0.1881789243195118  0.0682599063917519  0.3528992744690150
  0.4969495642061841  0.5699761492913785  0.8548085243989374
  0.0487656747165263  0.4300238506791127  0.1451914551134725
  0.1881789243195118  0.4317400847411293  0.3528992744690150
  0.0846177658361935  0.5699326967757419  0.6404275121017319
  0.3234628199616004  0.0686776805457721  0.1462930498776346
  0.2222524189611031  0.9313223105723518  0.8537069296347752
  0.3575362857106836  0.9317400847263716  0.6471007255568414
  0.4610974730865098  0.0699326879381321  0.3595724879241251
  0.2222524189611031  0.5686776893833814  0.8537069296347752
  0.3234628199616004  0.4313223105871094  0.1462930498776346
  0.4610974730865098  0.4300673031947495  0.3595724879241251
  0.3575362857106836  0.5682599152293616  0.6471007255568414
  0.0204829642667371  0.7500000176088264  0.6150430627706696
  0.5252322259263558  0.2500000000663931  0.3849569371689989
  0.1108383310687778  0.2500000000663931  0.0817448170843067
  0.1615311000339200  0.7500000176088264  0.9077541608241219
  0.2966621950913700  0.7500000176088264  0.5924887990418438
  0.2490530293850830  0.2500000000663931  0.4075112008978241
  0.3841841244728164  0.2500000000663931  0.0922458186020922
  0.4348769006156549  0.7500000176088264  0.9182551623419070
  0.0490989361473709  0.2500000000663931  0.9613385852045196
  0.4966162702788311  0.7500000176088264  0.0386614301633259
  0.0710444144001534  0.7500000176088264  0.4590226716112763
  0.1894650552383613  0.2500000000663931  0.5360884517439674
  0.3257632485105357  0.2500000000663931  0.9627148942636441
  0.2199519904424580  0.7500000176088264  0.0372851211042013
  0.3562501547918342  0.7500000176088264  0.4639114660557030
  0.4746708245225571  0.2500000000663931  0.5409772461883936
 
  0.00000000E+00  0.00000000E+00  0.00000000E+00
  0.00000000E+00  0.00000000E+00  0.00000000E+00
  0.00000000E+00  0.00000000E+00  0.00000000E+00
  0.00000000E+00  0.00000000E+00  0.00000000E+00
  0.00000000E+00  0.00000000E+00  0.00000000E+00
  0.00000000E+00  0.00000000E+00  0.00000000E+00
  0.00000000E+00  0.00000000E+00  0.00000000E+00
  0.00000000E+00  0.00000000E+00  0.00000000E+00
  0.00000000E+00  0.00000000E+00  0.00000000E+00
  0.00000000E+00  0.00000000E+00  0.00000000E+00
  0.00000000E+00  0.00000000E+00  0.00000000E+00
  0.00000000E+00  0.00000000E+00  0.00000000E+00
  0.00000000E+00  0.00000000E+00  0.00000000E+00
  0.00000000E+00  0.00000000E+00  0.00000000E+00
  0.00000000E+00  0.00000000E+00  0.00000000E+00
  0.00000000E+00  0.00000000E+00  0.00000000E+00
  0.00000000E+00  0.00000000E+00  0.00000000E+00
  0.00000000E+00  0.00000000E+00  0.00000000E+00
  0.00000000E+00  0.00000000E+00  0.00000000E+00
  0.00000000E+00  0.00000000E+00  0.00000000E+00
  0.00000000E+00  0.00000000E+00  0.00000000E+00
  0.00000000E+00  0.00000000E+00  0.00000000E+00
  0.00000000E+00  0.00000000E+00  0.00000000E+00
  0.00000000E+00  0.00000000E+00  0.00000000E+00
  0.00000000E+00  0.00000000E+00  0.00000000E+00
  0.00000000E+00  0.00000000E+00  0.00000000E+00
  0.00000000E+00  0.00000000E+00  0.00000000E+00
  0.00000000E+00  0.00000000E+00  0.00000000E+00
  0.00000000E+00  0.00000000E+00  0.00000000E+00
  0.00000000E+00  0.00000000E+00  0.00000000E+00
  0.00000000E+00  0.00000000E+00  0.00000000E+00
  0.00000000E+00  0.00000000E+00  0.00000000E+00
  0.00000000E+00  0.00000000E+00  0.00000000E+00
  0.00000000E+00  0.00000000E+00  0.00000000E+00
  0.00000000E+00  0.00000000E+00  0.00000000E+00
  0.00000000E+00  0.00000000E+00  0.00000000E+00
  0.00000000E+00  0.00000000E+00  0.00000000E+00
  0.00000000E+00  0.00000000E+00  0.00000000E+00
  0.00000000E+00  0.00000000E+00  0.00000000E+00
  0.00000000E+00  0.00000000E+00  0.00000000E+00
  0.00000000E+00  0.00000000E+00  0.00000000E+00
  0.00000000E+00  0.00000000E+00  0.00000000E+00
  0.00000000E+00  0.00000000E+00  0.00000000E+00
  0.00000000E+00  0.00000000E+00  0.00000000E+00
  0.00000000E+00  0.00000000E+00  0.00000000E+00
  0.00000000E+00  0.00000000E+00  0.00000000E+00
  0.00000000E+00  0.00000000E+00  0.00000000E+00
  0.00000000E+00  0.00000000E+00  0.00000000E+00
