ba8 si16                                
   1.00000000000000     
    55.1482782177039397    0.0000000000000000    0.0000000000000000
     0.0000000000000000    6.6869834892741116    0.0000000000000000
     0.0000000000000000    0.0000000000000000   11.4503578587130015
   Ba   Si
    36    72
Direct
  0.0058841166388658  0.2500000000663931  0.7010168979921392
  0.1649462269850790  0.2500000000663931  0.6903529688949307
  0.3269781091899461  0.2500000000663931  0.6909737792968400
  0.4893038213939049  0.2500000000663931  0.6908938125528769
  0.6533190115308802  0.2500000000663931  0.6925637572243647
  0.1595639160552853  0.7500000176088264  0.3085048258642901
  0.3218288944325653  0.7500000176088264  0.3090003336787451
  0.4841030839428352  0.7500000176088264  0.3089432191023477
  0.6458743495007968  0.7500000176088264  0.3086229488015193
  0.0766180235039565  0.7500000176088264  0.1925636954987004
  0.2406332651509391  0.7500000176088264  0.1908937508272125
  0.4029589430208971  0.7500000176088264  0.1909737175711756
  0.5649908767357713  0.7500000176088264  0.1903529071692663
  0.7240529532700977  0.7500000176088264  0.2010168362664748
  0.0840627198680478  0.2500000000663931  0.8086229899275411
  0.2458339854260092  0.2500000000663931  0.8089432602283696
  0.4081081234262723  0.2500000000663931  0.8090003748047672
  0.5703731533135595  0.2500000000663931  0.8085048669903122
  0.0347897214490514  0.7500000176088264  0.9121345609798971
  0.1886039902587313  0.7500000176088264  0.9059660328262094
  0.3504065515473195  0.7500000176088264  0.9059798409497311
  0.5126712202281906  0.7500000176088264  0.9049867418390489
  0.6738842003202195  0.7500000176088264  0.8956305752878537
  0.1354399737517997  0.2500000000663931  0.0931661839342941
  0.2983583275893872  0.2500000000663931  0.0940609496510430
  0.4606248298139151  0.2500000000663931  0.0937628709159301
  0.6224338946455765  0.2500000000663931  0.0953740330300042
  0.0560528175386185  0.2500000000663931  0.3956306575011087
  0.2172658319826531  0.2500000000663931  0.4049868240523037
  0.3795305006635237  0.2500000000663931  0.4059799231629862
  0.5413330619521119  0.2500000000663931  0.4059661150394640
  0.6951472964097865  0.2500000000663931  0.4121346431931521
  0.1075031918992672  0.7500000176088264  0.5953740125294820
  0.2693122223969282  0.7500000176088264  0.5937628504154079
  0.4315787246034509  0.7500000176088264  0.5940609291505210
  0.5944971042050479  0.7500000176088264  0.5931661634337719
  0.0293044467238872  0.0711940722201376  0.1457496448318750
  0.1930865217211150  0.0699992961138773  0.1460230212871825
  0.3555331989370229  0.0699399504256016  0.1464956893449842
  0.5177473786449174  0.0698947862454721  0.1455955759702141
  0.6795480168060485  0.0710718770612113  0.1419499967593955
  0.1318958890200652  0.9303664587151188  0.8540926574435653
  0.2932596443986784  0.9300905077323558  0.8535210811979376
  0.4555444119570840  0.9300844074397692  0.8534194376955029
  0.6179052008570045  0.9307139754076011  0.8529725721428237
  0.0503890611507920  0.9289281140569121  0.6419500172857743
  0.2121897078999264  0.9301052048726507  0.6455955964965929
  0.3744038532558152  0.9300600406925215  0.6464957098713628
  0.5368505819817231  0.9300006950042462  0.6460230418135613
  0.7006326462664674  0.9288059188979858  0.6457496653582535
  0.1120318255898291  0.0692860157105222  0.3529725721298919
  0.2743926574297657  0.0699155836783542  0.3534194376825711
  0.4366774078121649  0.0699094833857678  0.3535210811850055
  0.5980411889547874  0.0696335324030047  0.3540926574306335
  0.1318958890200652  0.5696335412406144  0.8540926574435653
  0.2932596443986784  0.5699094922233774  0.8535210811979376
  0.4555444119570840  0.5699155925159640  0.8534194376955029
  0.6179052008570045  0.5692860245481320  0.8529725721428237
  0.0293044467238872  0.4288059189127438  0.1457496448318750
  0.1930865217211150  0.4300006950190042  0.1460230212871825
  0.3555331989370229  0.4300600407072798  0.1464956893449842
  0.5177473786449174  0.4301052048874096  0.1455955759702141
  0.6795480168060485  0.4289281140716701  0.1419499967593955
  0.1120318255898291  0.4307139754223593  0.3529725721298919
  0.2743926574297657  0.4300844074545272  0.3534194376825711
  0.4366774078121649  0.4300905077471137  0.3535210811850055
  0.5980411889547874  0.4303664587298766  0.3540926574306335
  0.0503890611507920  0.5710718858988211  0.6419500172857743
  0.2121897078999264  0.5698947950830825  0.6455955964965929
  0.3744038532558152  0.5699399592632117  0.6464957098713628
  0.5368505819817231  0.5699993049514870  0.6460230418135613
  0.7006326462664674  0.5711940810577474  0.6457496653582535
  0.0120678291752923  0.7500000176088264  0.6180049048493681
  0.1757736519655209  0.7500000176088264  0.5914724286112504
  0.3380030562007618  0.7500000176088264  0.5917185437362172
  0.5003799926359115  0.7500000176088264  0.5917845100750774
  0.6635233620043488  0.7500000176088264  0.5827551504825538
  0.1483279641694072  0.2500000000663931  0.4077969881932142
  0.3107975105757947  0.2500000000663931  0.4082269407239763
  0.4730673213371233  0.2500000000663931  0.4082061879535947
  0.6341635118315716  0.2500000000663931  0.4090964850356913
  0.0664136773154870  0.2500000000663931  0.0827550888430780
  0.2295570939089326  0.2500000000663931  0.0917844484356017
  0.3919340303440820  0.2500000000663931  0.0917184820967415
  0.5541634517553293  0.2500000000663931  0.0914723669717748
  0.7178692380510528  0.2500000000663931  0.1180048432098924
  0.0957735575552778  0.7500000176088264  0.9090965261617132
  0.2568697480317212  0.7500000176088264  0.9082062290796165
  0.4191395416350486  0.7500000176088264  0.9082269818499984
  0.5816091395514431  0.7500000176088264  0.9077970293192360
  0.0295873038167615  0.2500000000663931  0.9627928070743833
  0.1937835909593615  0.2500000000663931  0.9640222450227753
  0.3561149592019896  0.2500000000663931  0.9643351870777994
  0.5183920734039145  0.2500000000663931  0.9635518244560204
  0.6878807569501250  0.2500000000663931  0.9615433923707580
  0.1307386160075526  0.7500000176088264  0.0369254728637903
  0.2926644597850971  0.7500000176088264  0.0356812348052798
  0.4549485478453381  0.7500000176088264  0.0355697991317896
  0.6172575680184227  0.7500000176088264  0.0353310250136105
  0.0420562737997197  0.7500000176088264  0.4615433102178355
  0.2115449959829352  0.7500000176088264  0.4635517423030979
  0.3738220930088537  0.7500000176088264  0.4643351049248769
  0.5361534956034946  0.7500000176088264  0.4640221628698523
  0.7003497719975866  0.7500000176088264  0.4627927249214607
  0.1126795013684201  0.2500000000663931  0.5353310095983573
  0.2749885386995057  0.2500000000663931  0.5355697837165367
  0.4372725924077410  0.2500000000663931  0.5356812193900268
  0.5991984104572861  0.2500000000663931  0.5369254574485371
 
  0.00000000E+00  0.00000000E+00  0.00000000E+00
  0.00000000E+00  0.00000000E+00  0.00000000E+00
  0.00000000E+00  0.00000000E+00  0.00000000E+00
  0.00000000E+00  0.00000000E+00  0.00000000E+00
  0.00000000E+00  0.00000000E+00  0.00000000E+00
  0.00000000E+00  0.00000000E+00  0.00000000E+00
  0.00000000E+00  0.00000000E+00  0.00000000E+00
  0.00000000E+00  0.00000000E+00  0.00000000E+00
  0.00000000E+00  0.00000000E+00  0.00000000E+00
  0.00000000E+00  0.00000000E+00  0.00000000E+00
  0.00000000E+00  0.00000000E+00  0.00000000E+00
  0.00000000E+00  0.00000000E+00  0.00000000E+00
  0.00000000E+00  0.00000000E+00  0.00000000E+00
  0.00000000E+00  0.00000000E+00  0.00000000E+00
  0.00000000E+00  0.00000000E+00  0.00000000E+00
  0.00000000E+00  0.00000000E+00  0.00000000E+00
  0.00000000E+00  0.00000000E+00  0.00000000E+00
  0.00000000E+00  0.00000000E+00  0.00000000E+00
  0.00000000E+00  0.00000000E+00  0.00000000E+00
  0.00000000E+00  0.00000000E+00  0.00000000E+00
  0.00000000E+00  0.00000000E+00  0.00000000E+00
  0.00000000E+00  0.00000000E+00  0.00000000E+00
  0.00000000E+00  0.00000000E+00  0.00000000E+00
  0.00000000E+00  0.00000000E+00  0.00000000E+00
  0.00000000E+00  0.00000000E+00  0.00000000E+00
  0.00000000E+00  0.00000000E+00  0.00000000E+00
  0.00000000E+00  0.00000000E+00  0.00000000E+00
  0.00000000E+00  0.00000000E+00  0.00000000E+00
  0.00000000E+00  0.00000000E+00  0.00000000E+00
  0.00000000E+00  0.00000000E+00  0.00000000E+00
  0.00000000E+00  0.00000000E+00  0.00000000E+00
  0.00000000E+00  0.00000000E+00  0.00000000E+00
  0.00000000E+00  0.00000000E+00  0.00000000E+00
  0.00000000E+00  0.00000000E+00  0.00000000E+00
  0.00000000E+00  0.00000000E+00  0.00000000E+00
  0.00000000E+00  0.00000000E+00  0.00000000E+00
  0.00000000E+00  0.00000000E+00  0.00000000E+00
  0.00000000E+00  0.00000000E+00  0.00000000E+00
  0.00000000E+00  0.00000000E+00  0.00000000E+00
  0.00000000E+00  0.00000000E+00  0.00000000E+00
  0.00000000E+00  0.00000000E+00  0.00000000E+00
  0.00000000E+00  0.00000000E+00  0.00000000E+00
  0.00000000E+00  0.00000000E+00  0.00000000E+00
  0.00000000E+00  0.00000000E+00  0.00000000E+00
  0.00000000E+00  0.00000000E+00  0.00000000E+00
  0.00000000E+00  0.00000000E+00  0.00000000E+00
  0.00000000E+00  0.00000000E+00  0.00000000E+00
  0.00000000E+00  0.00000000E+00  0.00000000E+00
  0.00000000E+00  0.00000000E+00  0.00000000E+00
  0.00000000E+00  0.00000000E+00  0.00000000E+00
  0.00000000E+00  0.00000000E+00  0.00000000E+00
  0.00000000E+00  0.00000000E+00  0.00000000E+00
  0.00000000E+00  0.00000000E+00  0.00000000E+00
  0.00000000E+00  0.00000000E+00  0.00000000E+00
  0.00000000E+00  0.00000000E+00  0.00000000E+00
  0.00000000E+00  0.00000000E+00  0.00000000E+00
  0.00000000E+00  0.00000000E+00  0.00000000E+00
  0.00000000E+00  0.00000000E+00  0.00000000E+00
  0.00000000E+00  0.00000000E+00  0.00000000E+00
  0.00000000E+00  0.00000000E+00  0.00000000E+00
  0.00000000E+00  0.00000000E+00  0.00000000E+00
  0.00000000E+00  0.00000000E+00  0.00000000E+00
  0.00000000E+00  0.00000000E+00  0.00000000E+00
  0.00000000E+00  0.00000000E+00  0.00000000E+00
  0.00000000E+00  0.00000000E+00  0.00000000E+00
  0.00000000E+00  0.00000000E+00  0.00000000E+00
  0.00000000E+00  0.00000000E+00  0.00000000E+00
  0.00000000E+00  0.00000000E+00  0.00000000E+00
  0.00000000E+00  0.00000000E+00  0.00000000E+00
  0.00000000E+00  0.00000000E+00  0.00000000E+00
  0.00000000E+00  0.00000000E+00  0.00000000E+00
  0.00000000E+00  0.00000000E+00  0.00000000E+00
  0.00000000E+00  0.00000000E+00  0.00000000E+00
  0.00000000E+00  0.00000000E+00  0.00000000E+00
  0.00000000E+00  0.00000000E+00  0.00000000E+00
  0.00000000E+00  0.00000000E+00  0.00000000E+00
  0.00000000E+00  0.00000000E+00  0.00000000E+00
  0.00000000E+00  0.00000000E+00  0.00000000E+00
  0.00000000E+00  0.00000000E+00  0.00000000E+00
  0.00000000E+00  0.00000000E+00  0.00000000E+00
  0.00000000E+00  0.00000000E+00  0.00000000E+00
  0.00000000E+00  0.00000000E+00  0.00000000E+00
  0.00000000E+00  0.00000000E+00  0.00000000E+00
  0.00000000E+00  0.00000000E+00  0.00000000E+00
  0.00000000E+00  0.00000000E+00  0.00000000E+00
  0.00000000E+00  0.00000000E+00  0.00000000E+00
  0.00000000E+00  0.00000000E+00  0.00000000E+00
  0.00000000E+00  0.00000000E+00  0.00000000E+00
  0.00000000E+00  0.00000000E+00  0.00000000E+00
  0.00000000E+00  0.00000000E+00  0.00000000E+00
  0.00000000E+00  0.00000000E+00  0.00000000E+00
  0.00000000E+00  0.00000000E+00  0.00000000E+00
  0.00000000E+00  0.00000000E+00  0.00000000E+00
  0.00000000E+00  0.00000000E+00  0.00000000E+00
  0.00000000E+00  0.00000000E+00  0.00000000E+00
  0.00000000E+00  0.00000000E+00  0.00000000E+00
  0.00000000E+00  0.00000000E+00  0.00000000E+00
  0.00000000E+00  0.00000000E+00  0.00000000E+00
  0.00000000E+00  0.00000000E+00  0.00000000E+00
  0.00000000E+00  0.00000000E+00  0.00000000E+00
  0.00000000E+00  0.00000000E+00  0.00000000E+00
  0.00000000E+00  0.00000000E+00  0.00000000E+00
  0.00000000E+00  0.00000000E+00  0.00000000E+00
  0.00000000E+00  0.00000000E+00  0.00000000E+00
  0.00000000E+00  0.00000000E+00  0.00000000E+00
  0.00000000E+00  0.00000000E+00  0.00000000E+00
  0.00000000E+00  0.00000000E+00  0.00000000E+00
  0.00000000E+00  0.00000000E+00  0.00000000E+00
