ba8 si16                                
   1.00000000000000     
    52.3167218849336422    0.0000000000000000    0.0582074261882601
     0.0000000000000000    6.6915190260702326    0.0000000000000000
     0.0130301866970761    0.0000000000000000   11.4645767634558311
   Ba   Si
    32    64
Direct
  0.0164594527672419  0.2500000000663931  0.7041370189558229
  0.1842816204148202  0.2500000000663931  0.6926296020959094
  0.3557870504881607  0.2500000000663931  0.6910993065876674
  0.5274568637607793  0.2500000000663931  0.6894158849785412
  0.1786437185270306  0.7500000176088264  0.3105841150473153
  0.3503135505112595  0.7500000176088264  0.3089006934381891
  0.5218189992570166  0.7500000176088264  0.3073703979299477
  0.6896411674923841  0.7500000176088264  0.2958629810700336
  0.0909757483408423  0.7500000176088264  0.1952383034961705
  0.2643700684263582  0.7500000176088264  0.1923376644242002
  0.4362530439693783  0.7500000176088264  0.1899562990791960
  0.6071950599716541  0.7500000176088264  0.1892047612110568
  0.0989055597001682  0.2500000000663931  0.8107952182151571
  0.2698475757024442  0.2500000000663931  0.8100436803470178
  0.4417305138810629  0.2500000000663931  0.8076623150020134
  0.6151248339665712  0.2500000000663931  0.8047616759300433
  0.0469658923152187  0.7500000176088264  0.9144584412439780
  0.2092370078263129  0.7500000176088264  0.9082007964688524
  0.3804582140197001  0.7500000176088264  0.9056569780313386
  0.5528173845256248  0.7500000176088264  0.9040079175668160
  0.1532832164737951  0.2500000000663931  0.0959920618593975
  0.3256423869601233  0.2500000000663931  0.0943430013948754
  0.4968635931731072  0.2500000000663931  0.0917991829573613
  0.6591347460486097  0.2500000000663931  0.0855415381822355
  0.0692852586289892  0.2500000000663931  0.3975388633786274
  0.2398025140987034  0.2500000000663931  0.4068995298349948
  0.4115781358219486  0.2500000000663931  0.4054044741529526
  0.5825451445414165  0.2500000000663931  0.4021116311743961
  0.1235554564384064  0.7500000176088264  0.5978884099645503
  0.2945224651774715  0.7500000176088264  0.5945955669859940
  0.4662980868811201  0.7500000176088264  0.5931005113039524
  0.6368153049864186  0.7500000176088264  0.6024611777603190
  0.0410671231686113  0.0711914367886074  0.1478319265071044
  0.2141074183150643  0.0701051544925691  0.1479459280961453
  0.3861041264324483  0.0699169824155519  0.1460212573647120
  0.5567083145094585  0.0694857546202853  0.1432020554271771
  0.1493922771439583  0.9305142364978379  0.8567979240852325
  0.3199964745473751  0.9300830087025712  0.8539787221476975
  0.4919931639727601  0.9298948366255545  0.8520540514162639
  0.6650334497928071  0.9288085543295163  0.8521680530053053
  0.0632780642806728  0.9288680963403403  0.6443646816323880
  0.2341195493841101  0.9299745849742040  0.6475353853033462
  0.4059109093590728  0.9300272283930013  0.6457843552373370
  0.5776506390391368  0.9308473648794373  0.6441955499206273
  0.1284499339222813  0.0691526262386866  0.3558044501052293
  0.3001896729483413  0.0699727627251222  0.3542156447885195
  0.4719810702877196  0.0700254061439191  0.3524646147225103
  0.6428225647371599  0.0711318947777834  0.3556353183934680
  0.1493922771439583  0.5694857634578953  0.8567979240852325
  0.3199964745473751  0.5699169912531620  0.8539787221476975
  0.4919931639727601  0.5701051633301787  0.8520540514162639
  0.6650334497928071  0.5711914456262169  0.8521680530053053
  0.0410671231686113  0.4288085543442740  0.1478319265071044
  0.2141074183150643  0.4298948366403121  0.1479459280961453
  0.3861041264324483  0.4300830087173296  0.1460212573647120
  0.5567083145094585  0.4305142365125960  0.1432020554271771
  0.1284499339222813  0.4308473648941951  0.3558044501052293
  0.3001896729483413  0.4300272284077594  0.3542156447885195
  0.4719810702877196  0.4299745849889624  0.3524646147225103
  0.6428225647371599  0.4288680963550979  0.3556353183934680
  0.0632780642806728  0.5711319036153929  0.6443646816323880
  0.2341195493841101  0.5700254149815291  0.6475353853033462
  0.4059109093590728  0.5699727715627319  0.6457843552373370
  0.5776506390391368  0.5691526350762959  0.6441955499206273
  0.0228475024490786  0.7500000176088264  0.6214406691177463
  0.1957383700052832  0.7500000176088264  0.5932982045836127
  0.3675206299523271  0.7500000176088264  0.5911889943273173
  0.5394099469741958  0.7500000176088264  0.5893917131544997
  0.1666906726976334  0.2500000000663931  0.4106082867851680
  0.3385799710274963  0.2500000000663931  0.4088110056123508
  0.5103622123021309  0.2500000000663931  0.4067017953560485
  0.6832531137351370  0.2500000000663931  0.3785593308219219
  0.0802272353058063  0.2500000000663931  0.0850195968389179
  0.2525626418627092  0.2500000000663931  0.0932687267844343
  0.4244854852843628  0.2500000000663931  0.0906640538349215
  0.5948046219584130  0.2500000000663931  0.0883161132351146
  0.1112959603490085  0.7500000176088264  0.9116838661910991
  0.2816150970034615  0.7500000176088264  0.9093359255912924
  0.4535379778287100  0.7500000176088264  0.9067312526417798
  0.6258733516648147  0.7500000176088264  0.9149803825872954
  0.0414739256025296  0.2500000000663931  0.9651999448010975
  0.2149051643597730  0.2500000000663931  0.9660588848930679
  0.3867952241672161  0.2500000000663931  0.9639723197316401
  0.5580551373639013  0.2500000000663931  0.9605865537747921
  0.1480454729815149  0.7500000176088264  0.0394134615930543
  0.3193053768126073  0.7500000176088264  0.0360276956362057
  0.4911954366396473  0.7500000176088264  0.0339411304747773
  0.6646267010837003  0.7500000176088264  0.0348000705667481
  0.0543504274110049  0.7500000176088264  0.4643757668559838
  0.2334716391732479  0.7500000176088264  0.4655251035111242
  0.4052416104084694  0.7500000176088264  0.4637185076789383
  0.5770229363982987  0.7500000176088264  0.4620388005083301
  0.1290776552355212  0.2500000000663931  0.5379611172913399
  0.3008589905909508  0.2500000000663931  0.5362814101207388
  0.4726289618065757  0.2500000000663931  0.5344748142885457
  0.6517501455504064  0.2500000000663931  0.5356241509436866
 
  0.00000000E+00  0.00000000E+00  0.00000000E+00
  0.00000000E+00  0.00000000E+00  0.00000000E+00
  0.00000000E+00  0.00000000E+00  0.00000000E+00
  0.00000000E+00  0.00000000E+00  0.00000000E+00
  0.00000000E+00  0.00000000E+00  0.00000000E+00
  0.00000000E+00  0.00000000E+00  0.00000000E+00
  0.00000000E+00  0.00000000E+00  0.00000000E+00
  0.00000000E+00  0.00000000E+00  0.00000000E+00
  0.00000000E+00  0.00000000E+00  0.00000000E+00
  0.00000000E+00  0.00000000E+00  0.00000000E+00
  0.00000000E+00  0.00000000E+00  0.00000000E+00
  0.00000000E+00  0.00000000E+00  0.00000000E+00
  0.00000000E+00  0.00000000E+00  0.00000000E+00
  0.00000000E+00  0.00000000E+00  0.00000000E+00
  0.00000000E+00  0.00000000E+00  0.00000000E+00
  0.00000000E+00  0.00000000E+00  0.00000000E+00
  0.00000000E+00  0.00000000E+00  0.00000000E+00
  0.00000000E+00  0.00000000E+00  0.00000000E+00
  0.00000000E+00  0.00000000E+00  0.00000000E+00
  0.00000000E+00  0.00000000E+00  0.00000000E+00
  0.00000000E+00  0.00000000E+00  0.00000000E+00
  0.00000000E+00  0.00000000E+00  0.00000000E+00
  0.00000000E+00  0.00000000E+00  0.00000000E+00
  0.00000000E+00  0.00000000E+00  0.00000000E+00
  0.00000000E+00  0.00000000E+00  0.00000000E+00
  0.00000000E+00  0.00000000E+00  0.00000000E+00
  0.00000000E+00  0.00000000E+00  0.00000000E+00
  0.00000000E+00  0.00000000E+00  0.00000000E+00
  0.00000000E+00  0.00000000E+00  0.00000000E+00
  0.00000000E+00  0.00000000E+00  0.00000000E+00
  0.00000000E+00  0.00000000E+00  0.00000000E+00
  0.00000000E+00  0.00000000E+00  0.00000000E+00
  0.00000000E+00  0.00000000E+00  0.00000000E+00
  0.00000000E+00  0.00000000E+00  0.00000000E+00
  0.00000000E+00  0.00000000E+00  0.00000000E+00
  0.00000000E+00  0.00000000E+00  0.00000000E+00
  0.00000000E+00  0.00000000E+00  0.00000000E+00
  0.00000000E+00  0.00000000E+00  0.00000000E+00
  0.00000000E+00  0.00000000E+00  0.00000000E+00
  0.00000000E+00  0.00000000E+00  0.00000000E+00
  0.00000000E+00  0.00000000E+00  0.00000000E+00
  0.00000000E+00  0.00000000E+00  0.00000000E+00
  0.00000000E+00  0.00000000E+00  0.00000000E+00
  0.00000000E+00  0.00000000E+00  0.00000000E+00
  0.00000000E+00  0.00000000E+00  0.00000000E+00
  0.00000000E+00  0.00000000E+00  0.00000000E+00
  0.00000000E+00  0.00000000E+00  0.00000000E+00
  0.00000000E+00  0.00000000E+00  0.00000000E+00
  0.00000000E+00  0.00000000E+00  0.00000000E+00
  0.00000000E+00  0.00000000E+00  0.00000000E+00
  0.00000000E+00  0.00000000E+00  0.00000000E+00
  0.00000000E+00  0.00000000E+00  0.00000000E+00
  0.00000000E+00  0.00000000E+00  0.00000000E+00
  0.00000000E+00  0.00000000E+00  0.00000000E+00
  0.00000000E+00  0.00000000E+00  0.00000000E+00
  0.00000000E+00  0.00000000E+00  0.00000000E+00
  0.00000000E+00  0.00000000E+00  0.00000000E+00
  0.00000000E+00  0.00000000E+00  0.00000000E+00
  0.00000000E+00  0.00000000E+00  0.00000000E+00
  0.00000000E+00  0.00000000E+00  0.00000000E+00
  0.00000000E+00  0.00000000E+00  0.00000000E+00
  0.00000000E+00  0.00000000E+00  0.00000000E+00
  0.00000000E+00  0.00000000E+00  0.00000000E+00
  0.00000000E+00  0.00000000E+00  0.00000000E+00
  0.00000000E+00  0.00000000E+00  0.00000000E+00
  0.00000000E+00  0.00000000E+00  0.00000000E+00
  0.00000000E+00  0.00000000E+00  0.00000000E+00
  0.00000000E+00  0.00000000E+00  0.00000000E+00
  0.00000000E+00  0.00000000E+00  0.00000000E+00
  0.00000000E+00  0.00000000E+00  0.00000000E+00
  0.00000000E+00  0.00000000E+00  0.00000000E+00
  0.00000000E+00  0.00000000E+00  0.00000000E+00
  0.00000000E+00  0.00000000E+00  0.00000000E+00
  0.00000000E+00  0.00000000E+00  0.00000000E+00
  0.00000000E+00  0.00000000E+00  0.00000000E+00
  0.00000000E+00  0.00000000E+00  0.00000000E+00
  0.00000000E+00  0.00000000E+00  0.00000000E+00
  0.00000000E+00  0.00000000E+00  0.00000000E+00
  0.00000000E+00  0.00000000E+00  0.00000000E+00
  0.00000000E+00  0.00000000E+00  0.00000000E+00
  0.00000000E+00  0.00000000E+00  0.00000000E+00
  0.00000000E+00  0.00000000E+00  0.00000000E+00
  0.00000000E+00  0.00000000E+00  0.00000000E+00
  0.00000000E+00  0.00000000E+00  0.00000000E+00
  0.00000000E+00  0.00000000E+00  0.00000000E+00
  0.00000000E+00  0.00000000E+00  0.00000000E+00
  0.00000000E+00  0.00000000E+00  0.00000000E+00
  0.00000000E+00  0.00000000E+00  0.00000000E+00
  0.00000000E+00  0.00000000E+00  0.00000000E+00
  0.00000000E+00  0.00000000E+00  0.00000000E+00
  0.00000000E+00  0.00000000E+00  0.00000000E+00
  0.00000000E+00  0.00000000E+00  0.00000000E+00
  0.00000000E+00  0.00000000E+00  0.00000000E+00
  0.00000000E+00  0.00000000E+00  0.00000000E+00
  0.00000000E+00  0.00000000E+00  0.00000000E+00
  0.00000000E+00  0.00000000E+00  0.00000000E+00
