ba8 si16                                
   1.00000000000000     
    51.8073948110096794    0.0000000000000000    0.0202906020259188
     0.0000000000000000    6.7210211443821510    0.0000000000000000
     0.0046014137654695    0.0000000000000000   11.5264553033402333
   Ba   Si
    32    64
Direct
  0.0120466146668642  0.2500000000663931  0.7039860151062198
  0.1820648270483742  0.2500000000663931  0.6926403951701956
  0.3556567019382499  0.2500000000663931  0.6931995930429445
  0.5295848643077830  0.2500000000663931  0.6926376475198869
  0.1765157179800271  0.7500000176088264  0.3073623525059696
  0.3504438990611703  0.7500000176088264  0.3068004069829122
  0.5240357926234627  0.7500000176088264  0.3073596048556613
  0.6940540055927619  0.7500000176088264  0.2960139849196368
  0.0875370171513442  0.7500000176088264  0.1945203447597257
  0.2634181930813793  0.7500000176088264  0.1929223797775495
  0.4373658551089225  0.7500000176088264  0.1924518963127417
  0.6105258829853520  0.7500000176088264  0.1922519208440964
  0.0955747366864704  0.2500000000663931  0.8077480585821173
  0.2687347645629000  0.2500000000663931  0.8075480831134720
  0.4426823892260419  0.2500000000663931  0.8070775996486642
  0.6185635651560699  0.2500000000663931  0.8054796346664882
  0.0422688113461563  0.7500000176088264  0.9127845589922378
  0.2076220193578224  0.7500000176088264  0.9067587730879373
  0.3810794774524845  0.7500000176088264  0.9060915769650983
  0.5557209071005190  0.7500000176088264  0.9061457871409634
  0.1503796938989011  0.2500000000663931  0.0938541922852505
  0.3250211235273389  0.2500000000663931  0.0939084024611154
  0.4984785816415978  0.2500000000663931  0.0932412063382765
  0.6638318270176723  0.2500000000663931  0.0872154204339761
  0.0652697236666523  0.2500000000663931  0.3958044176495181
  0.2382789161615580  0.2500000000663931  0.4054646163536942
  0.4118573928989222  0.2500000000663931  0.4062335862880132
  0.5853655845837314  0.2500000000663931  0.4039244347884932
  0.1207350163960919  0.7500000176088264  0.5960756063504533
  0.2942432081004980  0.7500000176088264  0.5937664548509333
  0.4678216848182654  0.7500000176088264  0.5945354247852522
  0.6408308399487556  0.7500000176088264  0.6041956234894285
  0.0375266202440290  0.0718575171350459  0.1441629420653464
  0.2126716607632524  0.0705309112323679  0.1460063350378125
  0.3868292466345495  0.0705154713160083  0.1458277899220289
  0.5596172502675749  0.0700995428798247  0.1444019860296462
  0.1464833413858422  0.9299004482382988  0.8555979934827633
  0.3192713543452739  0.9294845198021151  0.8541721895903807
  0.4934289215245719  0.9294690798857554  0.8539936444745972
  0.6685739527173891  0.9281424739830776  0.8558370374470634
  0.0590021638577839  0.9280578168749268  0.6439667156114031
  0.2325208010030133  0.9294881434799303  0.6456419429078348
  0.4060948846831647  0.9295806761381519  0.6460133182906043
  0.5802899551084811  0.9301153235274666  0.6456368495979007
  0.1258106178529369  0.0698846675906568  0.3543631504279559
  0.3000056976242493  0.0704193149799716  0.3539866817352522
  0.4735798186688163  0.0705118476381930  0.3543580571180219
  0.6470984651600488  0.0719421742431966  0.3560332844144535
  0.1464833413858422  0.5700995517174344  0.8555979934827633
  0.3192713543452739  0.5705154801536181  0.8541721895903807
  0.4934289215245719  0.5705309200699777  0.8539936444745972
  0.6685739527173891  0.5718575259726556  0.8558370374470634
  0.0375266202440290  0.4281424739978355  0.1441629420653464
  0.2126716607632524  0.4294690799005135  0.1460063350378125
  0.3868292466345495  0.4294845198168731  0.1458277899220289
  0.5596172502675749  0.4299004482530567  0.1444019860296462
  0.1258106178529369  0.4301153235422246  0.3543631504279559
  0.3000056976242493  0.4295806761529098  0.3539866817352522
  0.4735798186688163  0.4294881434946884  0.3543580571180219
  0.6470984651600488  0.4280578168896848  0.3560332844144535
  0.0590021638577839  0.5719421830808064  0.6439667156114031
  0.2325208010030133  0.5705118564758029  0.6456419429078348
  0.4060948846831647  0.5704193238175813  0.6460133182906043
  0.5802899551084811  0.5698846764282666  0.6456368495979007
  0.0179827667598806  0.7500000176088264  0.6218168463250855
  0.1937129048567323  0.7500000176088264  0.5908987235349522
  0.3672923904669628  0.7500000176088264  0.5907367523560503
  0.5415961036277436  0.7500000176088264  0.5902468961311835
  0.1645045160440860  0.2500000000663931  0.4097531038084843
  0.3388082105128606  0.2500000000663931  0.4092632475836175
  0.5123876774506816  0.2500000000663931  0.4091012764047083
  0.6881178494243353  0.2500000000663931  0.3781831536145824
  0.0771856152002806  0.2500000000663931  0.0823914061133585
  0.2515416185055698  0.2500000000663931  0.0910809007981375
  0.4256240666377337  0.2500000000663931  0.0904396564353252
  0.5981962376518722  0.2500000000663931  0.0893817444400040
  0.1079043446555489  0.7500000176088264  0.9106182349862098
  0.2804765156500907  0.7500000176088264  0.9095603229908886
  0.4545590011858494  0.7500000176088264  0.9089190786280764
  0.6289149717703401  0.7500000176088264  0.9176085733128552
  0.0379818433459196  0.2500000000663931  0.9624486307425708
  0.2132845204001386  0.2500000000663931  0.9648785506196778
  0.3873625488476728  0.2500000000663931  0.9645218242316964
  0.5608881121505532  0.2500000000663931  0.9625006852734808
  0.1452124981948628  0.7500000176088264  0.0374993300943649
  0.3187380521321506  0.7500000176088264  0.0354781911361492
  0.4928160805992815  0.7500000176088264  0.0351214647481679
  0.6681187833403098  0.7500000176088264  0.0375513846252749
  0.0496085205643805  0.7500000176088264  0.4649192895454681
  0.2319188920989758  0.7500000176088264  0.4643553752203131
  0.4055625764676453  0.7500000176088264  0.4646256991529836
  0.5797766019070427  0.7500000176088264  0.4641321866137429
  0.1263239897267776  0.2500000000663931  0.5358677311859270
  0.3005380245317749  0.2500000000663931  0.5353742186466933
  0.4741817088808475  0.2500000000663931  0.5356445425793567
  0.6564920523970303  0.2500000000663931  0.5350806282542018
 
  0.00000000E+00  0.00000000E+00  0.00000000E+00
  0.00000000E+00  0.00000000E+00  0.00000000E+00
  0.00000000E+00  0.00000000E+00  0.00000000E+00
  0.00000000E+00  0.00000000E+00  0.00000000E+00
  0.00000000E+00  0.00000000E+00  0.00000000E+00
  0.00000000E+00  0.00000000E+00  0.00000000E+00
  0.00000000E+00  0.00000000E+00  0.00000000E+00
  0.00000000E+00  0.00000000E+00  0.00000000E+00
  0.00000000E+00  0.00000000E+00  0.00000000E+00
  0.00000000E+00  0.00000000E+00  0.00000000E+00
  0.00000000E+00  0.00000000E+00  0.00000000E+00
  0.00000000E+00  0.00000000E+00  0.00000000E+00
  0.00000000E+00  0.00000000E+00  0.00000000E+00
  0.00000000E+00  0.00000000E+00  0.00000000E+00
  0.00000000E+00  0.00000000E+00  0.00000000E+00
  0.00000000E+00  0.00000000E+00  0.00000000E+00
  0.00000000E+00  0.00000000E+00  0.00000000E+00
  0.00000000E+00  0.00000000E+00  0.00000000E+00
  0.00000000E+00  0.00000000E+00  0.00000000E+00
  0.00000000E+00  0.00000000E+00  0.00000000E+00
  0.00000000E+00  0.00000000E+00  0.00000000E+00
  0.00000000E+00  0.00000000E+00  0.00000000E+00
  0.00000000E+00  0.00000000E+00  0.00000000E+00
  0.00000000E+00  0.00000000E+00  0.00000000E+00
  0.00000000E+00  0.00000000E+00  0.00000000E+00
  0.00000000E+00  0.00000000E+00  0.00000000E+00
  0.00000000E+00  0.00000000E+00  0.00000000E+00
  0.00000000E+00  0.00000000E+00  0.00000000E+00
  0.00000000E+00  0.00000000E+00  0.00000000E+00
  0.00000000E+00  0.00000000E+00  0.00000000E+00
  0.00000000E+00  0.00000000E+00  0.00000000E+00
  0.00000000E+00  0.00000000E+00  0.00000000E+00
  0.00000000E+00  0.00000000E+00  0.00000000E+00
  0.00000000E+00  0.00000000E+00  0.00000000E+00
  0.00000000E+00  0.00000000E+00  0.00000000E+00
  0.00000000E+00  0.00000000E+00  0.00000000E+00
  0.00000000E+00  0.00000000E+00  0.00000000E+00
  0.00000000E+00  0.00000000E+00  0.00000000E+00
  0.00000000E+00  0.00000000E+00  0.00000000E+00
  0.00000000E+00  0.00000000E+00  0.00000000E+00
  0.00000000E+00  0.00000000E+00  0.00000000E+00
  0.00000000E+00  0.00000000E+00  0.00000000E+00
  0.00000000E+00  0.00000000E+00  0.00000000E+00
  0.00000000E+00  0.00000000E+00  0.00000000E+00
  0.00000000E+00  0.00000000E+00  0.00000000E+00
  0.00000000E+00  0.00000000E+00  0.00000000E+00
  0.00000000E+00  0.00000000E+00  0.00000000E+00
  0.00000000E+00  0.00000000E+00  0.00000000E+00
  0.00000000E+00  0.00000000E+00  0.00000000E+00
  0.00000000E+00  0.00000000E+00  0.00000000E+00
  0.00000000E+00  0.00000000E+00  0.00000000E+00
  0.00000000E+00  0.00000000E+00  0.00000000E+00
  0.00000000E+00  0.00000000E+00  0.00000000E+00
  0.00000000E+00  0.00000000E+00  0.00000000E+00
  0.00000000E+00  0.00000000E+00  0.00000000E+00
  0.00000000E+00  0.00000000E+00  0.00000000E+00
  0.00000000E+00  0.00000000E+00  0.00000000E+00
  0.00000000E+00  0.00000000E+00  0.00000000E+00
  0.00000000E+00  0.00000000E+00  0.00000000E+00
  0.00000000E+00  0.00000000E+00  0.00000000E+00
  0.00000000E+00  0.00000000E+00  0.00000000E+00
  0.00000000E+00  0.00000000E+00  0.00000000E+00
  0.00000000E+00  0.00000000E+00  0.00000000E+00
  0.00000000E+00  0.00000000E+00  0.00000000E+00
  0.00000000E+00  0.00000000E+00  0.00000000E+00
  0.00000000E+00  0.00000000E+00  0.00000000E+00
  0.00000000E+00  0.00000000E+00  0.00000000E+00
  0.00000000E+00  0.00000000E+00  0.00000000E+00
  0.00000000E+00  0.00000000E+00  0.00000000E+00
  0.00000000E+00  0.00000000E+00  0.00000000E+00
  0.00000000E+00  0.00000000E+00  0.00000000E+00
  0.00000000E+00  0.00000000E+00  0.00000000E+00
  0.00000000E+00  0.00000000E+00  0.00000000E+00
  0.00000000E+00  0.00000000E+00  0.00000000E+00
  0.00000000E+00  0.00000000E+00  0.00000000E+00
  0.00000000E+00  0.00000000E+00  0.00000000E+00
  0.00000000E+00  0.00000000E+00  0.00000000E+00
  0.00000000E+00  0.00000000E+00  0.00000000E+00
  0.00000000E+00  0.00000000E+00  0.00000000E+00
  0.00000000E+00  0.00000000E+00  0.00000000E+00
  0.00000000E+00  0.00000000E+00  0.00000000E+00
  0.00000000E+00  0.00000000E+00  0.00000000E+00
  0.00000000E+00  0.00000000E+00  0.00000000E+00
  0.00000000E+00  0.00000000E+00  0.00000000E+00
  0.00000000E+00  0.00000000E+00  0.00000000E+00
  0.00000000E+00  0.00000000E+00  0.00000000E+00
  0.00000000E+00  0.00000000E+00  0.00000000E+00
  0.00000000E+00  0.00000000E+00  0.00000000E+00
  0.00000000E+00  0.00000000E+00  0.00000000E+00
  0.00000000E+00  0.00000000E+00  0.00000000E+00
  0.00000000E+00  0.00000000E+00  0.00000000E+00
  0.00000000E+00  0.00000000E+00  0.00000000E+00
  0.00000000E+00  0.00000000E+00  0.00000000E+00
  0.00000000E+00  0.00000000E+00  0.00000000E+00
  0.00000000E+00  0.00000000E+00  0.00000000E+00
  0.00000000E+00  0.00000000E+00  0.00000000E+00
