ba8 si16                                
   1.00000000000000     
    51.0378723144999995    0.0000000000000000    0.0000000000000000
     0.0000000000000000    6.7778496741999996    0.0000000000000000
     0.0000000000000000    0.0000000000000000   11.6021432877000006
   Ba   Si
    32    64
Direct
  0.0119617703770267  0.2500000000663931  0.7040717979803245
  0.1820945094631590  0.2500000000663931  0.6927164097833001
  0.3556637167663804  0.2500000000663931  0.6932129332279078
  0.5296089873107975  0.2500000000663931  0.6926744359445279
  0.1764915949770191  0.7500000176088264  0.3073255640813286
  0.3504368842330398  0.7500000176088264  0.3067870667979493
  0.5240061102086706  0.7500000176088264  0.3072835902425571
  0.6941388498825996  0.7500000176088264  0.2959282020455324
  0.0875143219171598  0.7500000176088264  0.1946940655287886
  0.2633850674895534  0.7500000176088264  0.1929343493538199
  0.4373562580773149  0.7500000176088264  0.1924408551033114
  0.6105369042586358  0.7500000176088264  0.1923273372086665
  0.0955637154131864  0.2500000000663931  0.8076726422175473
  0.2687443615945075  0.2500000000663931  0.8075591243229027
  0.4427155148178677  0.2500000000663931  0.8070656300723937
  0.6185862603902542  0.2500000000663931  0.8053059138974251
  0.0421098365472349  0.7500000176088264  0.9126657299940309
  0.2077022294031935  0.7500000176088264  0.9068373329094510
  0.3811929776238167  0.7500000176088264  0.9061842730773558
  0.5558081205329446  0.7500000176088264  0.9062062303895493
  0.1502924804664755  0.2500000000663931  0.0937937490366646
  0.3249076233560067  0.2500000000663931  0.0938157063488576
  0.4983983715962272  0.2500000000663931  0.0931626465167628
  0.6639908018165936  0.2500000000663931  0.0873342494321834
  0.0651486469350414  0.2500000000663931  0.3957301472308418
  0.2381812684965546  0.2500000000663931  0.4055053473121453
  0.4117540166135020  0.2500000000663931  0.4062978730540477
  0.5853444023408967  0.2500000000663931  0.4041591300630150
  0.1207561986389266  0.7500000176088264  0.5958409110759315
  0.2943465843859182  0.7500000176088264  0.5937021680848986
  0.4679193324832689  0.7500000176088264  0.5944946938268016
  0.6409519166803668  0.7500000176088264  0.6042698939081044
  0.0374073415602969  0.0733479310744107  0.1436083185927733
  0.2125697783682024  0.0719707092022630  0.1456357866291492
  0.3867434671087694  0.0719514948979069  0.1453968146564761
  0.5595359103756762  0.0714762475531345  0.1440577270666387
  0.1465646812777404  0.9285237435649891  0.8559422524457710
  0.3193571338710540  0.9280484962202163  0.8546031648559341
  0.4935308039196221  0.9280292819158603  0.8543641928832604
  0.6686932314011211  0.9266520600437130  0.8563916609196363
  0.0590938826475310  0.9266620232010461  0.6437028438327064
  0.2326201499737910  0.9280991746734180  0.6453080321290826
  0.4061990536023873  0.9281459552727656  0.6456681700453568
  0.5803617959337223  0.9288063585197643  0.6452763943169036
  0.1257387770276958  0.0711936325983596  0.3547236057089534
  0.2999015287050268  0.0718540358453576  0.3543318299805000
  0.4734804696980388  0.0719008164447057  0.3546919678967737
  0.6470067463703014  0.0733379679170770  0.3562971561931506
  0.1465646812777404  0.5714762563907441  0.8559422524457710
  0.3193571338710540  0.5719515037355168  0.8546031648559341
  0.4935308039196221  0.5719707180398729  0.8543641928832604
  0.6686932314011211  0.5733479399120202  0.8563916609196363
  0.0374073415602969  0.4266520600584707  0.1436083185927733
  0.2125697783682024  0.4280292819306184  0.1456357866291492
  0.3867434671087694  0.4280484962349745  0.1453968146564761
  0.5595359103756762  0.4285237435797472  0.1440577270666387
  0.1257387770276958  0.4288063585345215  0.3547236057089534
  0.2999015287050267  0.4281459552875239  0.3543318299805000
  0.4734804696980388  0.4280991746881757  0.3546919678967737
  0.6470067463703014  0.4266620232158044  0.3562971561931506
  0.0590938826475310  0.5733379767546871  0.6437028438327064
  0.2326201499737910  0.5719008252823152  0.6453080321290826
  0.4061990536023873  0.5718540446829676  0.6456681700453568
  0.5803617959337223  0.5711936414359688  0.6452763943169036
  0.0175635390943436  0.7500000176088264  0.6218826580014042
  0.1933191217827988  0.7500000176088264  0.5907299623145936
  0.3669123175191318  0.7500000176088264  0.5904805809351904
  0.5411980962687205  0.7500000176088264  0.5900460922195959
  0.1649025234031091  0.2500000000663931  0.4099539077200718
  0.3391882834606916  0.2500000000663931  0.4095194190044771
  0.5127814605246156  0.2500000000663931  0.4092700376250736
  0.6885370770898721  0.2500000000663931  0.3781173419382634
  0.0775202416828787  0.2500000000663931  0.0824646597367790
  0.2519203834439538  0.2500000000663931  0.0909216006183048
  0.4260036151324733  0.2500000000663931  0.0903262151511863
  0.5985097069426090  0.2500000000663931  0.0892922241815957
  0.1075908753648118  0.7500000176088264  0.9107077552446184
  0.2800969671553510  0.7500000176088264  0.9096737642750273
  0.4541802362474654  0.7500000176088264  0.9090783788079091
  0.6285803452877419  0.7500000176088264  0.9175353196894348
  0.0378125638696999  0.2500000000663931  0.9629025643137982
  0.2131610272406136  0.2500000000663931  0.9655754513523725
  0.3872250873765885  0.2500000000663931  0.9652239853179387
  0.5607608724465653  0.2500000000663931  0.9631190980288964
  0.1453397378988512  0.7500000176088264  0.0368809173389495
  0.3188755136032350  0.7500000176088264  0.0347760300499070
  0.4929395737588066  0.7500000176088264  0.0344245640154735
  0.6682880628165295  0.7500000176088264  0.0370974510540475
  0.0496534752591785  0.7500000176088264  0.4655755397538197
  0.2320129313072768  0.7500000176088264  0.4651163017079877
  0.4056619782367217  0.7500000176088264  0.4654923539530993
  0.5798923339518632  0.7500000176088264  0.4649423405464299
  0.1262082576819571  0.2500000000663931  0.5350575772532398
  0.3004386227626985  0.2500000000663931  0.5345075638465711
  0.4740876696725466  0.2500000000663931  0.5348836160916822
  0.6564470977022326  0.2500000000663931  0.5344243780458503
 
  0.00000000E+00  0.00000000E+00  0.00000000E+00
  0.00000000E+00  0.00000000E+00  0.00000000E+00
  0.00000000E+00  0.00000000E+00  0.00000000E+00
  0.00000000E+00  0.00000000E+00  0.00000000E+00
  0.00000000E+00  0.00000000E+00  0.00000000E+00
  0.00000000E+00  0.00000000E+00  0.00000000E+00
  0.00000000E+00  0.00000000E+00  0.00000000E+00
  0.00000000E+00  0.00000000E+00  0.00000000E+00
  0.00000000E+00  0.00000000E+00  0.00000000E+00
  0.00000000E+00  0.00000000E+00  0.00000000E+00
  0.00000000E+00  0.00000000E+00  0.00000000E+00
  0.00000000E+00  0.00000000E+00  0.00000000E+00
  0.00000000E+00  0.00000000E+00  0.00000000E+00
  0.00000000E+00  0.00000000E+00  0.00000000E+00
  0.00000000E+00  0.00000000E+00  0.00000000E+00
  0.00000000E+00  0.00000000E+00  0.00000000E+00
  0.00000000E+00  0.00000000E+00  0.00000000E+00
  0.00000000E+00  0.00000000E+00  0.00000000E+00
  0.00000000E+00  0.00000000E+00  0.00000000E+00
  0.00000000E+00  0.00000000E+00  0.00000000E+00
  0.00000000E+00  0.00000000E+00  0.00000000E+00
  0.00000000E+00  0.00000000E+00  0.00000000E+00
  0.00000000E+00  0.00000000E+00  0.00000000E+00
  0.00000000E+00  0.00000000E+00  0.00000000E+00
  0.00000000E+00  0.00000000E+00  0.00000000E+00
  0.00000000E+00  0.00000000E+00  0.00000000E+00
  0.00000000E+00  0.00000000E+00  0.00000000E+00
  0.00000000E+00  0.00000000E+00  0.00000000E+00
  0.00000000E+00  0.00000000E+00  0.00000000E+00
  0.00000000E+00  0.00000000E+00  0.00000000E+00
  0.00000000E+00  0.00000000E+00  0.00000000E+00
  0.00000000E+00  0.00000000E+00  0.00000000E+00
  0.00000000E+00  0.00000000E+00  0.00000000E+00
  0.00000000E+00  0.00000000E+00  0.00000000E+00
  0.00000000E+00  0.00000000E+00  0.00000000E+00
  0.00000000E+00  0.00000000E+00  0.00000000E+00
  0.00000000E+00  0.00000000E+00  0.00000000E+00
  0.00000000E+00  0.00000000E+00  0.00000000E+00
  0.00000000E+00  0.00000000E+00  0.00000000E+00
  0.00000000E+00  0.00000000E+00  0.00000000E+00
  0.00000000E+00  0.00000000E+00  0.00000000E+00
  0.00000000E+00  0.00000000E+00  0.00000000E+00
  0.00000000E+00  0.00000000E+00  0.00000000E+00
  0.00000000E+00  0.00000000E+00  0.00000000E+00
  0.00000000E+00  0.00000000E+00  0.00000000E+00
  0.00000000E+00  0.00000000E+00  0.00000000E+00
  0.00000000E+00  0.00000000E+00  0.00000000E+00
  0.00000000E+00  0.00000000E+00  0.00000000E+00
  0.00000000E+00  0.00000000E+00  0.00000000E+00
  0.00000000E+00  0.00000000E+00  0.00000000E+00
  0.00000000E+00  0.00000000E+00  0.00000000E+00
  0.00000000E+00  0.00000000E+00  0.00000000E+00
  0.00000000E+00  0.00000000E+00  0.00000000E+00
  0.00000000E+00  0.00000000E+00  0.00000000E+00
  0.00000000E+00  0.00000000E+00  0.00000000E+00
  0.00000000E+00  0.00000000E+00  0.00000000E+00
  0.00000000E+00  0.00000000E+00  0.00000000E+00
  0.00000000E+00  0.00000000E+00  0.00000000E+00
  0.00000000E+00  0.00000000E+00  0.00000000E+00
  0.00000000E+00  0.00000000E+00  0.00000000E+00
  0.00000000E+00  0.00000000E+00  0.00000000E+00
  0.00000000E+00  0.00000000E+00  0.00000000E+00
  0.00000000E+00  0.00000000E+00  0.00000000E+00
  0.00000000E+00  0.00000000E+00  0.00000000E+00
  0.00000000E+00  0.00000000E+00  0.00000000E+00
  0.00000000E+00  0.00000000E+00  0.00000000E+00
  0.00000000E+00  0.00000000E+00  0.00000000E+00
  0.00000000E+00  0.00000000E+00  0.00000000E+00
  0.00000000E+00  0.00000000E+00  0.00000000E+00
  0.00000000E+00  0.00000000E+00  0.00000000E+00
  0.00000000E+00  0.00000000E+00  0.00000000E+00
  0.00000000E+00  0.00000000E+00  0.00000000E+00
  0.00000000E+00  0.00000000E+00  0.00000000E+00
  0.00000000E+00  0.00000000E+00  0.00000000E+00
  0.00000000E+00  0.00000000E+00  0.00000000E+00
  0.00000000E+00  0.00000000E+00  0.00000000E+00
  0.00000000E+00  0.00000000E+00  0.00000000E+00
  0.00000000E+00  0.00000000E+00  0.00000000E+00
  0.00000000E+00  0.00000000E+00  0.00000000E+00
  0.00000000E+00  0.00000000E+00  0.00000000E+00
  0.00000000E+00  0.00000000E+00  0.00000000E+00
  0.00000000E+00  0.00000000E+00  0.00000000E+00
  0.00000000E+00  0.00000000E+00  0.00000000E+00
  0.00000000E+00  0.00000000E+00  0.00000000E+00
  0.00000000E+00  0.00000000E+00  0.00000000E+00
  0.00000000E+00  0.00000000E+00  0.00000000E+00
  0.00000000E+00  0.00000000E+00  0.00000000E+00
  0.00000000E+00  0.00000000E+00  0.00000000E+00
  0.00000000E+00  0.00000000E+00  0.00000000E+00
  0.00000000E+00  0.00000000E+00  0.00000000E+00
  0.00000000E+00  0.00000000E+00  0.00000000E+00
  0.00000000E+00  0.00000000E+00  0.00000000E+00
  0.00000000E+00  0.00000000E+00  0.00000000E+00
  0.00000000E+00  0.00000000E+00  0.00000000E+00
  0.00000000E+00  0.00000000E+00  0.00000000E+00
  0.00000000E+00  0.00000000E+00  0.00000000E+00
