ba8 si16                                
   1.00000000000000     
    50.6978557391929314    0.0000000000000000   -0.0034450672070444
     0.0000000000000000    6.6845097694681765    0.0000000000000000
    -0.0010278812483948    0.0000000000000000   11.4460209177269334
   Ba   Si
    32    64
Direct
  0.0064324085439756  0.2500000000663931  0.7004221538649948
  0.1795455604190634  0.2500000000663931  0.6902900196135729
  0.3559018721989094  0.2500000000663931  0.6910762783661036
  0.5324377393771086  0.2500000000663931  0.6916344457358780
  0.1736628429107086  0.7500000176088264  0.3083655542899786
  0.3501987288005108  0.7500000176088264  0.3089237216597531
  0.5265550592527661  0.7500000176088264  0.3097099804122838
  0.6996682117156500  0.7500000176088264  0.2995778461608619
  0.0834213787451986  0.7500000176088264  0.1923087909265375
  0.2618962843380808  0.7500000176088264  0.1910294794176790
  0.4384851849253364  0.7500000176088264  0.1909172834343722
  0.6145972664173275  0.7500000176088264  0.1917494981191661
  0.0915033532544951  0.2500000000663931  0.8082504813070477
  0.2676154347464861  0.2500000000663931  0.8090826959918415
  0.4442042979693404  0.2500000000663931  0.8089705000085348
  0.6226792035622156  0.2500000000663931  0.8076911884996762
  0.0378911570412583  0.7500000176088264  0.9115454028604073
  0.2052587648320270  0.7500000176088264  0.9059970213882241
  0.3814190219009297  0.7500000176088264  0.9058663765667694
  0.5586338655452464  0.7500000176088264  0.9071249670137322
  0.1474667354541736  0.2500000000663931  0.0928750124124814
  0.3246815790788937  0.2500000000663931  0.0941336028594447
  0.5008418361673930  0.2500000000663931  0.0940029580379895
  0.6682094813225705  0.2500000000663931  0.0884545765658065
  0.0610834204341053  0.2500000000663931  0.3951645901232086
  0.2364738860317859  0.2500000000663931  0.4051341558042617
  0.4129733803032174  0.2500000000663931  0.4059816989941622
  0.5890832360922450  0.2500000000663931  0.4051126878655673
  0.1170173648875785  0.7500000176088264  0.5948873532733796
  0.2931272206962028  0.7500000176088264  0.5940183421447844
  0.4696267149480376  0.7500000176088264  0.5948658853346843
  0.6450171431813024  0.7500000176088264  0.6048354510157377
  0.0319641201587240  0.0709985410678650  0.1451968166426506
  0.2101739134673719  0.0699170566920201  0.1459785857777252
  0.3868689798558943  0.0698449215353201  0.1462277615396793
  0.5625424824812074  0.0695513682477778  0.1461060166205968
  0.1435581091722097  0.9304486228703458  0.8538939628918129
  0.3192316211239291  0.9301550695828036  0.8537722179727305
  0.4959266688204524  0.9300829344261037  0.8540213937346847
  0.6741364528026940  0.9290014500502582  0.8548031628697592
  0.0548607788408192  0.9290057416302978  0.6415026188461531
  0.2309706871664824  0.9301750569259390  0.6457808011266509
  0.4074653457607831  0.9301446745535874  0.6463184679891149
  0.5840696213726061  0.9307659664441809  0.6473602537172600
  0.1220309515888118  0.0692340246739423  0.3526397463085963
  0.2986352365466309  0.0698553165645358  0.3536815320367417
  0.4751299325053472  0.0698249341921771  0.3542191988992054
  0.6512398501770135  0.0709942494878257  0.3584973811797035
  0.1435581091722097  0.5695513770853874  0.8538939628918129
  0.3192316211239291  0.5698449303729296  0.8537722179727305
  0.4959266688204524  0.5699170655296295  0.8540213937346847
  0.6741364528026940  0.5709985499054749  0.8548031628697592
  0.0319641201587240  0.4290014500650164  0.1451968166426506
  0.2101739134673719  0.4300829344408613  0.1459785857777252
  0.3868689798558943  0.4301550695975613  0.1462277615396793
  0.5625424824812074  0.4304486228851035  0.1461060166205968
  0.1220309515888118  0.4307659664589392  0.3526397463085963
  0.2986352365466309  0.4301446745683458  0.3536815320367417
  0.4751299325053472  0.4301750569407043  0.3542191988992054
  0.6512398501770135  0.4290057416450556  0.3584973811797035
  0.0548607788408192  0.5709942583254354  0.6415026188461531
  0.2309706871664824  0.5698249430297941  0.6457808011266509
  0.4074653457607831  0.5698553254021458  0.6463184679891149
  0.5840696213726061  0.5692340335115523  0.6473602537172600
  0.0131687295319998  0.7500000176088264  0.6173028833268180
  0.1913386376562639  0.7500000176088264  0.5916387072745973
  0.3678572243430498  0.7500000176088264  0.5917033829399894
  0.5446041162421330  0.7500000176088264  0.5923605468437966
  0.1614965034296967  0.2500000000663931  0.4076394530958716
  0.3382433766367736  0.2500000000663931  0.4082966169996854
  0.5147619446511501  0.2500000000663931  0.4083612926650703
  0.6929318866522163  0.2500000000663931  0.3826971166128496
  0.0723245924830243  0.2500000000663931  0.0824323848332667
  0.2498636856936679  0.2500000000663931  0.0919545980912684
  0.4264780313460341  0.2500000000663931  0.0917896185906858
  0.6018595945103705  0.2500000000663931  0.0914183594009045
  0.1042409877970501  0.7500000176088264  0.9085816200253094
  0.2796225509417903  0.7500000176088264  0.9082103608355279
  0.4562369339977514  0.7500000176088264  0.9080453813349453
  0.6337759944875968  0.7500000176088264  0.9175675945929470
  0.0322588827395681  0.2500000000663931  0.9622504502610463
  0.2110288970907468  0.2500000000663931  0.9639453314550627
  0.3875751619805010  0.2500000000663931  0.9640950597303987
  0.5639173479305977  0.2500000000663931  0.9631537680159065
  0.1421832624148182  0.7500000176088264  0.0368462473519395
  0.3185254389993225  0.7500000176088264  0.0359049556374469
  0.4950717039086735  0.7500000176088264  0.0360546839127831
  0.6738417439466613  0.7500000176088264  0.0377495651067993
  0.0458655012055128  0.7500000176088264  0.4611065004760018
  0.2302334972221705  0.7500000176088264  0.4636879930560568
  0.4067923696479554  0.7500000176088264  0.4641596971193832
  0.5834362051389796  0.7500000176088264  0.4649068206642694
  0.1226643864948411  0.2500000000663931  0.5350930971354005
  0.2993082313514648  0.2500000000663931  0.5358402206802868
  0.4758671037576528  0.2500000000663931  0.5363119247436131
  0.6602350717558982  0.2500000000663931  0.5388934173236682
 
  0.00000000E+00  0.00000000E+00  0.00000000E+00
  0.00000000E+00  0.00000000E+00  0.00000000E+00
  0.00000000E+00  0.00000000E+00  0.00000000E+00
  0.00000000E+00  0.00000000E+00  0.00000000E+00
  0.00000000E+00  0.00000000E+00  0.00000000E+00
  0.00000000E+00  0.00000000E+00  0.00000000E+00
  0.00000000E+00  0.00000000E+00  0.00000000E+00
  0.00000000E+00  0.00000000E+00  0.00000000E+00
  0.00000000E+00  0.00000000E+00  0.00000000E+00
  0.00000000E+00  0.00000000E+00  0.00000000E+00
  0.00000000E+00  0.00000000E+00  0.00000000E+00
  0.00000000E+00  0.00000000E+00  0.00000000E+00
  0.00000000E+00  0.00000000E+00  0.00000000E+00
  0.00000000E+00  0.00000000E+00  0.00000000E+00
  0.00000000E+00  0.00000000E+00  0.00000000E+00
  0.00000000E+00  0.00000000E+00  0.00000000E+00
  0.00000000E+00  0.00000000E+00  0.00000000E+00
  0.00000000E+00  0.00000000E+00  0.00000000E+00
  0.00000000E+00  0.00000000E+00  0.00000000E+00
  0.00000000E+00  0.00000000E+00  0.00000000E+00
  0.00000000E+00  0.00000000E+00  0.00000000E+00
  0.00000000E+00  0.00000000E+00  0.00000000E+00
  0.00000000E+00  0.00000000E+00  0.00000000E+00
  0.00000000E+00  0.00000000E+00  0.00000000E+00
  0.00000000E+00  0.00000000E+00  0.00000000E+00
  0.00000000E+00  0.00000000E+00  0.00000000E+00
  0.00000000E+00  0.00000000E+00  0.00000000E+00
  0.00000000E+00  0.00000000E+00  0.00000000E+00
  0.00000000E+00  0.00000000E+00  0.00000000E+00
  0.00000000E+00  0.00000000E+00  0.00000000E+00
  0.00000000E+00  0.00000000E+00  0.00000000E+00
  0.00000000E+00  0.00000000E+00  0.00000000E+00
  0.00000000E+00  0.00000000E+00  0.00000000E+00
  0.00000000E+00  0.00000000E+00  0.00000000E+00
  0.00000000E+00  0.00000000E+00  0.00000000E+00
  0.00000000E+00  0.00000000E+00  0.00000000E+00
  0.00000000E+00  0.00000000E+00  0.00000000E+00
  0.00000000E+00  0.00000000E+00  0.00000000E+00
  0.00000000E+00  0.00000000E+00  0.00000000E+00
  0.00000000E+00  0.00000000E+00  0.00000000E+00
  0.00000000E+00  0.00000000E+00  0.00000000E+00
  0.00000000E+00  0.00000000E+00  0.00000000E+00
  0.00000000E+00  0.00000000E+00  0.00000000E+00
  0.00000000E+00  0.00000000E+00  0.00000000E+00
  0.00000000E+00  0.00000000E+00  0.00000000E+00
  0.00000000E+00  0.00000000E+00  0.00000000E+00
  0.00000000E+00  0.00000000E+00  0.00000000E+00
  0.00000000E+00  0.00000000E+00  0.00000000E+00
  0.00000000E+00  0.00000000E+00  0.00000000E+00
  0.00000000E+00  0.00000000E+00  0.00000000E+00
  0.00000000E+00  0.00000000E+00  0.00000000E+00
  0.00000000E+00  0.00000000E+00  0.00000000E+00
  0.00000000E+00  0.00000000E+00  0.00000000E+00
  0.00000000E+00  0.00000000E+00  0.00000000E+00
  0.00000000E+00  0.00000000E+00  0.00000000E+00
  0.00000000E+00  0.00000000E+00  0.00000000E+00
  0.00000000E+00  0.00000000E+00  0.00000000E+00
  0.00000000E+00  0.00000000E+00  0.00000000E+00
  0.00000000E+00  0.00000000E+00  0.00000000E+00
  0.00000000E+00  0.00000000E+00  0.00000000E+00
  0.00000000E+00  0.00000000E+00  0.00000000E+00
  0.00000000E+00  0.00000000E+00  0.00000000E+00
  0.00000000E+00  0.00000000E+00  0.00000000E+00
  0.00000000E+00  0.00000000E+00  0.00000000E+00
  0.00000000E+00  0.00000000E+00  0.00000000E+00
  0.00000000E+00  0.00000000E+00  0.00000000E+00
  0.00000000E+00  0.00000000E+00  0.00000000E+00
  0.00000000E+00  0.00000000E+00  0.00000000E+00
  0.00000000E+00  0.00000000E+00  0.00000000E+00
  0.00000000E+00  0.00000000E+00  0.00000000E+00
  0.00000000E+00  0.00000000E+00  0.00000000E+00
  0.00000000E+00  0.00000000E+00  0.00000000E+00
  0.00000000E+00  0.00000000E+00  0.00000000E+00
  0.00000000E+00  0.00000000E+00  0.00000000E+00
  0.00000000E+00  0.00000000E+00  0.00000000E+00
  0.00000000E+00  0.00000000E+00  0.00000000E+00
  0.00000000E+00  0.00000000E+00  0.00000000E+00
  0.00000000E+00  0.00000000E+00  0.00000000E+00
  0.00000000E+00  0.00000000E+00  0.00000000E+00
  0.00000000E+00  0.00000000E+00  0.00000000E+00
  0.00000000E+00  0.00000000E+00  0.00000000E+00
  0.00000000E+00  0.00000000E+00  0.00000000E+00
  0.00000000E+00  0.00000000E+00  0.00000000E+00
  0.00000000E+00  0.00000000E+00  0.00000000E+00
  0.00000000E+00  0.00000000E+00  0.00000000E+00
  0.00000000E+00  0.00000000E+00  0.00000000E+00
  0.00000000E+00  0.00000000E+00  0.00000000E+00
  0.00000000E+00  0.00000000E+00  0.00000000E+00
  0.00000000E+00  0.00000000E+00  0.00000000E+00
  0.00000000E+00  0.00000000E+00  0.00000000E+00
  0.00000000E+00  0.00000000E+00  0.00000000E+00
  0.00000000E+00  0.00000000E+00  0.00000000E+00
  0.00000000E+00  0.00000000E+00  0.00000000E+00
  0.00000000E+00  0.00000000E+00  0.00000000E+00
  0.00000000E+00  0.00000000E+00  0.00000000E+00
  0.00000000E+00  0.00000000E+00  0.00000000E+00
