ba8 si16                                
   1.00000000000000     
    24.0094680786000012    0.0000000000000000    0.0000000000000000
     0.0000000000000000    6.5403619402746864    0.0000000000000000
     0.0000000000000000    0.0000000000000000   11.2484058311128994
   Ba   Si
     8    16
Direct
  0.0102744651535005  0.2688638657159501  0.7153290096968945
  0.3649720033857307  0.7674472522151419  0.3161187760781061
  0.1772643518879704  0.7682956042155595  0.2093367123334744
  0.1979821154017500  0.2680155137155324  0.8221110521940673
  0.0864749107604794  0.7686917568099432  0.9304502849000613
  0.2887715565708930  0.2676193611211488  0.1009974796274804
  0.1304296398320304  0.2684041614583350  0.4096484880604123
  0.2448168274576901  0.7679069564727570  0.6217993401206030
  0.0635840703123876  0.0847914462407076  0.1658630307935383
  0.3116623970189849  0.9515196441689611  0.8655847338229066
  0.1154818001933577  0.9520478965778025  0.6568924438699852
  0.2597646670963627  0.0842631938318732  0.3745553419050154
  0.3115960845172694  0.5841641475610331  0.8654611343882124
  0.0636503828141031  0.4521469520224528  0.1659866302282325
  0.2597220832572589  0.4506893401639473  0.3742949673735438
  0.1155243840324616  0.5856217594195385  0.6571528184014568
  0.0281549270690107  0.7688449529556465  0.6305969020431377
  0.3470915328069708  0.2674661649754455  0.4008508836429598
  0.1473779931346897  0.2685303483207520  0.0973457568235787
  0.2278684841094361  0.7677807696103400  0.9341020077039701
  0.0632136309690949  0.2687016718086070  0.9797629604669496
  0.3120328314059009  0.7676094461224849  0.0516848411325199
  0.0973959385923564  0.7683182638228701  0.4735132459548907
  0.2778505286973640  0.2679928541082219  0.5579344550080876
 
  0.00000000E+00  0.00000000E+00  0.00000000E+00
  0.00000000E+00  0.00000000E+00  0.00000000E+00
  0.00000000E+00  0.00000000E+00  0.00000000E+00
  0.00000000E+00  0.00000000E+00  0.00000000E+00
  0.00000000E+00  0.00000000E+00  0.00000000E+00
  0.00000000E+00  0.00000000E+00  0.00000000E+00
  0.00000000E+00  0.00000000E+00  0.00000000E+00
  0.00000000E+00  0.00000000E+00  0.00000000E+00
  0.00000000E+00  0.00000000E+00  0.00000000E+00
  0.00000000E+00  0.00000000E+00  0.00000000E+00
  0.00000000E+00  0.00000000E+00  0.00000000E+00
  0.00000000E+00  0.00000000E+00  0.00000000E+00
  0.00000000E+00  0.00000000E+00  0.00000000E+00
  0.00000000E+00  0.00000000E+00  0.00000000E+00
  0.00000000E+00  0.00000000E+00  0.00000000E+00
  0.00000000E+00  0.00000000E+00  0.00000000E+00
  0.00000000E+00  0.00000000E+00  0.00000000E+00
  0.00000000E+00  0.00000000E+00  0.00000000E+00
  0.00000000E+00  0.00000000E+00  0.00000000E+00
  0.00000000E+00  0.00000000E+00  0.00000000E+00
  0.00000000E+00  0.00000000E+00  0.00000000E+00
  0.00000000E+00  0.00000000E+00  0.00000000E+00
  0.00000000E+00  0.00000000E+00  0.00000000E+00
  0.00000000E+00  0.00000000E+00  0.00000000E+00
