ba8 si16                                
   1.00000000000000     
    55.1400104977138881    0.0000000000000000    0.0000000000000000
     0.0000000000000000    6.6869590905749847    0.0000000000000000
     0.0000000000000000    0.0000000000000000   11.4516357710044190
   Ba   Si
    36    72
Direct
  0.0059005793517024  0.2500000000663931  0.7009343407721058
  0.1649469152842953  0.2500000000663931  0.6903062309478935
  0.3269717104405235  0.2500000000663931  0.6909634791276301
  0.4892965662563895  0.2500000000663931  0.6908895921803038
  0.6533117049429883  0.2500000000663931  0.6924429892810485
  0.1595608362315979  0.7500000176088264  0.3085336104728301
  0.3218329626676287  0.7500000176088264  0.3090475453191999
  0.4841055010822704  0.7500000176088264  0.3089465680352571
  0.6458673068910366  0.7500000176088264  0.3086948822083154
  0.0766253300918486  0.7500000176088264  0.1924429275553838
  0.2406405202884545  0.7500000176088264  0.1908895304546391
  0.4029653417703198  0.7500000176088264  0.1909634174019655
  0.5649901884365552  0.7500000176088264  0.1903061692222288
  0.7240364905572616  0.7500000176088264  0.2009342790464413
  0.0840697624778075  0.2500000000663931  0.8086949233343369
  0.2458315682865740  0.2500000000663931  0.8089466091612781
  0.4081040551912088  0.2500000000663931  0.8090475864452216
  0.5703762331372465  0.2500000000663931  0.8085336515988517
  0.0347541404378475  0.7500000176088264  0.9120514456713059
  0.1886352151930186  0.7500000176088264  0.9060191420990696
  0.3504111780039015  0.7500000176088264  0.9059872477830710
  0.5126765545207385  0.7500000176088264  0.9049616723601478
  0.6738949154620238  0.7500000176088264  0.8956315441129283
  0.1354534700828735  0.2500000000663931  0.0931881146620930
  0.2983483421148193  0.2500000000663931  0.0941000976909993
  0.4606250751989936  0.2500000000663931  0.0937819063067453
  0.6224023774396120  0.2500000000663931  0.0954025284359587
  0.0560421023968138  0.2500000000663931  0.3956316263261829
  0.2172604976901050  0.2500000000663931  0.4049617545734024
  0.3795258742069417  0.2500000000663931  0.4059873299963257
  0.5413018370178249  0.2500000000663931  0.4060192243123242
  0.6951828774209898  0.2500000000663931  0.4120515278845610
  0.1075347091052317  0.7500000176088264  0.5954025079354366
  0.2693119770118497  0.7500000176088264  0.5937818858062232
  0.4315887100780189  0.7500000176088264  0.5941000771904770
  0.5944836078739740  0.7500000176088264  0.5931880941615709
  0.0293028642490862  0.0712084353591154  0.1457366969759593
  0.1930927295590336  0.0700182375998286  0.1460219531728863
  0.3555287555644948  0.0699593819937002  0.1465025448572378
  0.5177446415706911  0.0699024979831686  0.1456007122538218
  0.6795460532756534  0.0710992178629283  0.1419802422981421
  0.1319202761582719  0.9303344911177394  0.8540930683921257
  0.2932571218709320  0.9300706886944884  0.8535236459074145
  0.4555501309185915  0.9300612444446625  0.8534237935058760
  0.6179121506532679  0.9307258855362435  0.8529604441099740
  0.0503910246811871  0.9289007732551953  0.6419802628245211
  0.2121924449741528  0.9300974931349545  0.6456007327802005
  0.3744082966283433  0.9300406091244232  0.6465025653836165
  0.5368443741438047  0.9299817535182952  0.6460219736992653
  0.7006342287412685  0.9287915557590080  0.6457367175023379
  0.1120248757935658  0.0692741055818799  0.3529604440970415
  0.2743869384682581  0.0699387466734612  0.3534237934929443
  0.4366799303399113  0.0699293024236349  0.3535236458944829
  0.5980168018165807  0.0696655000003843  0.3540930683791938
  0.1319202761582719  0.5696655088379938  0.8540930683921257
  0.2932571218709320  0.5699293112612448  0.8535236459074145
  0.4555501309185915  0.5699387555110706  0.8534237935058760
  0.6179121506532679  0.5692741144194897  0.8529604441099740
  0.0293028642490862  0.4287915557737661  0.1457366969759593
  0.1930927295590336  0.4299817535330527  0.1460219531728863
  0.3555287555644948  0.4300406091391811  0.1465025448572378
  0.5177446415706911  0.4300974931497127  0.1456007122538218
  0.6795460532756534  0.4289007732699532  0.1419802422981421
  0.1120248757935658  0.4307258855510016  0.3529604440970415
  0.2743869384682581  0.4300612444594201  0.3534237934929443
  0.4366799303399113  0.4300706887092464  0.3535236458944829
  0.5980168018165807  0.4303344911324970  0.3540930683791938
  0.0503910246811871  0.5710992267005379  0.6419802628245211
  0.2121924449741528  0.5699025068207787  0.6456007327802005
  0.3744082966283433  0.5699593908313100  0.6465025653836165
  0.5368443741438047  0.5700182464374380  0.6460219736992653
  0.7006342287412685  0.5712084441967252  0.6457367175023379
  0.0120593887451750  0.7500000176088264  0.6180056962865675
  0.1757694336633711  0.7500000176088264  0.5914017300358427
  0.3380054427070146  0.7500000176088264  0.5916610871715040
  0.5003743127678966  0.7500000176088264  0.5917542190803842
  0.6635142470416449  0.7500000176088264  0.5827372229901001
  0.1483243939949025  0.2500000000663931  0.4077374840435479
  0.3107909539207248  0.2500000000663931  0.4082782115228262
  0.4730715406798378  0.2500000000663931  0.4082407398314560
  0.6341471144777659  0.2500000000663931  0.4091561088610737
  0.0664227922781913  0.2500000000663931  0.0827371613506244
  0.2295627737769474  0.2500000000663931  0.0917541574409083
  0.3919316438378292  0.2500000000663931  0.0916610255320284
  0.5541676700574790  0.2500000000663931  0.0914016683963668
  0.7178776784811701  0.2500000000663931  0.1180056346470916
  0.0957899549090839  0.7500000176088264  0.9091561499870957
  0.2568655286890067  0.7500000176088264  0.9082407809574781
  0.4191460982901185  0.7500000176088264  0.9082782526488478
  0.5816127097259477  0.7500000176088264  0.9077375251695696
  0.0295942061190327  0.2500000000663931  0.9627827696981657
  0.1937916743201605  0.2500000000663931  0.9640398999293441
  0.3561098033411842  0.2500000000663931  0.9643935897208955
  0.5183968252844529  0.2500000000663931  0.9636018709356738
  0.6878631815153922  0.2500000000663931  0.9616095048143475
  0.1307510353215182  0.7500000176088264  0.0369076349549488
  0.2926536504728917  0.7500000176088264  0.0356736540312459
  0.4549482070994413  0.7500000176088264  0.0355419727218819
  0.6172540011763322  0.7500000176088264  0.0352962766025960
  0.0420738492344527  0.7500000176088264  0.4616094226614247
  0.2115402441023968  0.7500000176088264  0.4636017887827512
  0.3738272488696591  0.7500000176088264  0.4643935075679728
  0.5361454122426953  0.7500000176088264  0.4640398177764218
  0.7003428696953155  0.7500000176088264  0.4627826875452428
  0.1126830682105104  0.2500000000663931  0.5352962611873429
  0.2749888794454025  0.2500000000663931  0.5355419573066289
  0.4372834017199464  0.2500000000663931  0.5356736386159928
  0.5991859911433208  0.2500000000663931  0.5369076195396957
 
  0.00000000E+00  0.00000000E+00  0.00000000E+00
  0.00000000E+00  0.00000000E+00  0.00000000E+00
  0.00000000E+00  0.00000000E+00  0.00000000E+00
  0.00000000E+00  0.00000000E+00  0.00000000E+00
  0.00000000E+00  0.00000000E+00  0.00000000E+00
  0.00000000E+00  0.00000000E+00  0.00000000E+00
  0.00000000E+00  0.00000000E+00  0.00000000E+00
  0.00000000E+00  0.00000000E+00  0.00000000E+00
  0.00000000E+00  0.00000000E+00  0.00000000E+00
  0.00000000E+00  0.00000000E+00  0.00000000E+00
  0.00000000E+00  0.00000000E+00  0.00000000E+00
  0.00000000E+00  0.00000000E+00  0.00000000E+00
  0.00000000E+00  0.00000000E+00  0.00000000E+00
  0.00000000E+00  0.00000000E+00  0.00000000E+00
  0.00000000E+00  0.00000000E+00  0.00000000E+00
  0.00000000E+00  0.00000000E+00  0.00000000E+00
  0.00000000E+00  0.00000000E+00  0.00000000E+00
  0.00000000E+00  0.00000000E+00  0.00000000E+00
  0.00000000E+00  0.00000000E+00  0.00000000E+00
  0.00000000E+00  0.00000000E+00  0.00000000E+00
  0.00000000E+00  0.00000000E+00  0.00000000E+00
  0.00000000E+00  0.00000000E+00  0.00000000E+00
  0.00000000E+00  0.00000000E+00  0.00000000E+00
  0.00000000E+00  0.00000000E+00  0.00000000E+00
  0.00000000E+00  0.00000000E+00  0.00000000E+00
  0.00000000E+00  0.00000000E+00  0.00000000E+00
  0.00000000E+00  0.00000000E+00  0.00000000E+00
  0.00000000E+00  0.00000000E+00  0.00000000E+00
  0.00000000E+00  0.00000000E+00  0.00000000E+00
  0.00000000E+00  0.00000000E+00  0.00000000E+00
  0.00000000E+00  0.00000000E+00  0.00000000E+00
  0.00000000E+00  0.00000000E+00  0.00000000E+00
  0.00000000E+00  0.00000000E+00  0.00000000E+00
  0.00000000E+00  0.00000000E+00  0.00000000E+00
  0.00000000E+00  0.00000000E+00  0.00000000E+00
  0.00000000E+00  0.00000000E+00  0.00000000E+00
  0.00000000E+00  0.00000000E+00  0.00000000E+00
  0.00000000E+00  0.00000000E+00  0.00000000E+00
  0.00000000E+00  0.00000000E+00  0.00000000E+00
  0.00000000E+00  0.00000000E+00  0.00000000E+00
  0.00000000E+00  0.00000000E+00  0.00000000E+00
  0.00000000E+00  0.00000000E+00  0.00000000E+00
  0.00000000E+00  0.00000000E+00  0.00000000E+00
  0.00000000E+00  0.00000000E+00  0.00000000E+00
  0.00000000E+00  0.00000000E+00  0.00000000E+00
  0.00000000E+00  0.00000000E+00  0.00000000E+00
  0.00000000E+00  0.00000000E+00  0.00000000E+00
  0.00000000E+00  0.00000000E+00  0.00000000E+00
  0.00000000E+00  0.00000000E+00  0.00000000E+00
  0.00000000E+00  0.00000000E+00  0.00000000E+00
  0.00000000E+00  0.00000000E+00  0.00000000E+00
  0.00000000E+00  0.00000000E+00  0.00000000E+00
  0.00000000E+00  0.00000000E+00  0.00000000E+00
  0.00000000E+00  0.00000000E+00  0.00000000E+00
  0.00000000E+00  0.00000000E+00  0.00000000E+00
  0.00000000E+00  0.00000000E+00  0.00000000E+00
  0.00000000E+00  0.00000000E+00  0.00000000E+00
  0.00000000E+00  0.00000000E+00  0.00000000E+00
  0.00000000E+00  0.00000000E+00  0.00000000E+00
  0.00000000E+00  0.00000000E+00  0.00000000E+00
  0.00000000E+00  0.00000000E+00  0.00000000E+00
  0.00000000E+00  0.00000000E+00  0.00000000E+00
  0.00000000E+00  0.00000000E+00  0.00000000E+00
  0.00000000E+00  0.00000000E+00  0.00000000E+00
  0.00000000E+00  0.00000000E+00  0.00000000E+00
  0.00000000E+00  0.00000000E+00  0.00000000E+00
  0.00000000E+00  0.00000000E+00  0.00000000E+00
  0.00000000E+00  0.00000000E+00  0.00000000E+00
  0.00000000E+00  0.00000000E+00  0.00000000E+00
  0.00000000E+00  0.00000000E+00  0.00000000E+00
  0.00000000E+00  0.00000000E+00  0.00000000E+00
  0.00000000E+00  0.00000000E+00  0.00000000E+00
  0.00000000E+00  0.00000000E+00  0.00000000E+00
  0.00000000E+00  0.00000000E+00  0.00000000E+00
  0.00000000E+00  0.00000000E+00  0.00000000E+00
  0.00000000E+00  0.00000000E+00  0.00000000E+00
  0.00000000E+00  0.00000000E+00  0.00000000E+00
  0.00000000E+00  0.00000000E+00  0.00000000E+00
  0.00000000E+00  0.00000000E+00  0.00000000E+00
  0.00000000E+00  0.00000000E+00  0.00000000E+00
  0.00000000E+00  0.00000000E+00  0.00000000E+00
  0.00000000E+00  0.00000000E+00  0.00000000E+00
  0.00000000E+00  0.00000000E+00  0.00000000E+00
  0.00000000E+00  0.00000000E+00  0.00000000E+00
  0.00000000E+00  0.00000000E+00  0.00000000E+00
  0.00000000E+00  0.00000000E+00  0.00000000E+00
  0.00000000E+00  0.00000000E+00  0.00000000E+00
  0.00000000E+00  0.00000000E+00  0.00000000E+00
  0.00000000E+00  0.00000000E+00  0.00000000E+00
  0.00000000E+00  0.00000000E+00  0.00000000E+00
  0.00000000E+00  0.00000000E+00  0.00000000E+00
  0.00000000E+00  0.00000000E+00  0.00000000E+00
  0.00000000E+00  0.00000000E+00  0.00000000E+00
  0.00000000E+00  0.00000000E+00  0.00000000E+00
  0.00000000E+00  0.00000000E+00  0.00000000E+00
  0.00000000E+00  0.00000000E+00  0.00000000E+00
  0.00000000E+00  0.00000000E+00  0.00000000E+00
  0.00000000E+00  0.00000000E+00  0.00000000E+00
  0.00000000E+00  0.00000000E+00  0.00000000E+00
  0.00000000E+00  0.00000000E+00  0.00000000E+00
  0.00000000E+00  0.00000000E+00  0.00000000E+00
  0.00000000E+00  0.00000000E+00  0.00000000E+00
  0.00000000E+00  0.00000000E+00  0.00000000E+00
  0.00000000E+00  0.00000000E+00  0.00000000E+00
  0.00000000E+00  0.00000000E+00  0.00000000E+00
  0.00000000E+00  0.00000000E+00  0.00000000E+00
  0.00000000E+00  0.00000000E+00  0.00000000E+00
  0.00000000E+00  0.00000000E+00  0.00000000E+00
