ba8 ge16                                
   1.00000000000000     
     9.0916470235590054    0.0000000000000000    0.0000000000000000
     0.0000000000000000    6.8320726529953273    0.0000000000000000
     0.0000000000000000    0.0000000000000000   11.6298783464475868
   Ba   Ge
     8    16
Direct
  0.0157686519411725  0.2500000000663931  0.6904169528296672
  0.9842313513220590  0.7500000176088264  0.3095830471961893
  0.4842313513553549  0.7500000176088264  0.1904168911040028
  0.5157686485780458  0.2500000000663931  0.8095830883222112
  0.1575387375154625  0.7500000176088264  0.9069097592528824
  0.8424612625289393  0.2500000000663931  0.0930902201733310
  0.3424612624512414  0.2500000000663931  0.4069098414661376
  0.6575387374821594  0.7500000176088264  0.5930901996728092
  0.1904212218534966  0.0602091143415224  0.1501804137151357
  0.8095787781908980  0.9397908767766009  0.8498195657972739
  0.3095787781132002  0.9397908767766009  0.6501804342415146
  0.6904212218202007  0.0602091143415224  0.3498195657843419
  0.8095787781908980  0.5602091231791323  0.8498195657972739
  0.1904212218534966  0.4397908767913591  0.1501804137151357
  0.6904212218202007  0.4397908767913591  0.3498195657843419
  0.3095787781132002  0.5602091231791323  0.6501804342415146
  0.0719507580799658  0.7500000176088264  0.5941804577704211
  0.9280492220964460  0.2500000000663931  0.4058195421692468
  0.4280492485463995  0.2500000000663931  0.0941803961309453
  0.5719507779146527  0.7500000176088264  0.9058195832952685
  0.1931453751637329  0.2500000000663931  0.9573762527234828
  0.8068546116723403  0.7500000176088264  0.0426237626443629
  0.3068546115946424  0.7500000176088264  0.4573761705705600
  0.6931453883387584  0.2500000000663931  0.5426237472291098
 
  0.00000000E+00  0.00000000E+00  0.00000000E+00
  0.00000000E+00  0.00000000E+00  0.00000000E+00
  0.00000000E+00  0.00000000E+00  0.00000000E+00
  0.00000000E+00  0.00000000E+00  0.00000000E+00
  0.00000000E+00  0.00000000E+00  0.00000000E+00
  0.00000000E+00  0.00000000E+00  0.00000000E+00
  0.00000000E+00  0.00000000E+00  0.00000000E+00
  0.00000000E+00  0.00000000E+00  0.00000000E+00
  0.00000000E+00  0.00000000E+00  0.00000000E+00
  0.00000000E+00  0.00000000E+00  0.00000000E+00
  0.00000000E+00  0.00000000E+00  0.00000000E+00
  0.00000000E+00  0.00000000E+00  0.00000000E+00
  0.00000000E+00  0.00000000E+00  0.00000000E+00
  0.00000000E+00  0.00000000E+00  0.00000000E+00
  0.00000000E+00  0.00000000E+00  0.00000000E+00
  0.00000000E+00  0.00000000E+00  0.00000000E+00
  0.00000000E+00  0.00000000E+00  0.00000000E+00
  0.00000000E+00  0.00000000E+00  0.00000000E+00
  0.00000000E+00  0.00000000E+00  0.00000000E+00
  0.00000000E+00  0.00000000E+00  0.00000000E+00
  0.00000000E+00  0.00000000E+00  0.00000000E+00
  0.00000000E+00  0.00000000E+00  0.00000000E+00
  0.00000000E+00  0.00000000E+00  0.00000000E+00
  0.00000000E+00  0.00000000E+00  0.00000000E+00
