ba8 si16                                
   1.00000000000000     
    16.2420023734897185    0.0000000000000000    0.0000000000000000
     0.0000000000000000    5.7172322663262820    0.0000000000000000
     0.0000000000000000    0.0000000000000000   11.6491670914780467
   Ba   Si
     4     8
Direct
  0.0187002149193701  0.2500000000663931  0.7431126117256772
  0.2496561489979072  0.7500000176088264  0.2431125500000127
  0.1835708458341543  0.7500000176088264  0.8982028439036575
  0.0473850867062992  0.2500000000663931  0.3982029261169115
  0.1021861337647458  0.0373971090327576  0.1378003682200274
  0.1287697987757078  0.9626028820853658  0.6378003887464064
  0.1021861337647458  0.4626028821001240  0.1378003682200274
  0.1287697987757078  0.5373971178703674  0.6378003887464064
  0.0042416611847942  0.7500000176088264  0.5707323609588870
  0.2267142744318333  0.2500000000663931  0.0707322993194116
  0.0986609567186594  0.2500000000663931  0.9627404454802881
  0.1322949697207119  0.7500000176088264  0.4627403633273657
 
  0.00000000E+00  0.00000000E+00  0.00000000E+00
  0.00000000E+00  0.00000000E+00  0.00000000E+00
  0.00000000E+00  0.00000000E+00  0.00000000E+00
  0.00000000E+00  0.00000000E+00  0.00000000E+00
  0.00000000E+00  0.00000000E+00  0.00000000E+00
  0.00000000E+00  0.00000000E+00  0.00000000E+00
  0.00000000E+00  0.00000000E+00  0.00000000E+00
  0.00000000E+00  0.00000000E+00  0.00000000E+00
  0.00000000E+00  0.00000000E+00  0.00000000E+00
  0.00000000E+00  0.00000000E+00  0.00000000E+00
  0.00000000E+00  0.00000000E+00  0.00000000E+00
  0.00000000E+00  0.00000000E+00  0.00000000E+00
