ba8 si16                                
   1.00000000000000     
    16.9728915932353175    0.0000000000000000    0.0000000000000000
     0.0000000000000000    5.7046327082279493    0.0000000000000000
     0.0000000000000000    0.0000000000000000   11.6646399557678428
   Ba   Si
     4     8
Direct
 -0.0127515005057448  0.2500000000663931  0.7422574297457435
  0.2437074345842817  0.7500000176088264  0.2422573680200790
  0.1802383081704552  0.7500000176088264  0.8983829761564111
  0.0507176243699984  0.2500000000663931  0.3983830583696662
  0.1020124704873301  0.0366125654550060  0.1381311933803654
  0.1289434620531235  0.9633874256631173  0.6381312139067440
  0.1020124704873301  0.4633874256778754  0.1381311933803654
  0.1289434620531234  0.5366125742926159  0.6381312139067441
  0.0102104750105729  0.7500000176088264  0.5700490039033660
  0.2207454606060546  0.2500000000663931  0.0700489422638902
  0.0977562619423660  0.2500000000663931  0.9634372019423132
  0.1331996644970051  0.7500000176088264  0.4634371197893907
 
  0.00000000E+00  0.00000000E+00  0.00000000E+00
  0.00000000E+00  0.00000000E+00  0.00000000E+00
  0.00000000E+00  0.00000000E+00  0.00000000E+00
  0.00000000E+00  0.00000000E+00  0.00000000E+00
  0.00000000E+00  0.00000000E+00  0.00000000E+00
  0.00000000E+00  0.00000000E+00  0.00000000E+00
  0.00000000E+00  0.00000000E+00  0.00000000E+00
  0.00000000E+00  0.00000000E+00  0.00000000E+00
  0.00000000E+00  0.00000000E+00  0.00000000E+00
  0.00000000E+00  0.00000000E+00  0.00000000E+00
  0.00000000E+00  0.00000000E+00  0.00000000E+00
  0.00000000E+00  0.00000000E+00  0.00000000E+00
