ba8 si16                                
   1.00000000000000     
    18.2923922604530311    0.0000000000000000    0.0000000000000000
     0.0000000000000000    6.4233377449564033    0.0000000000000000
     0.0000000000000000    0.0000000000000000   11.2842110166906693
   Ba   Si
     4     8
Direct
  0.0167273364751961  0.2500000000663931  0.7006121894090547
  0.2142285976033267  0.7500000176088264  0.2006121276834644
  0.0990210772667037  0.7500000176088264  0.8997238866089664
  0.1319348552737412  0.2500000000663931  0.3997239688222597
  0.0745886801769738  0.0645420204695387  0.1444949034326817
  0.1563672523634810  0.9354579706485183  0.6444949239590333
  0.0745886801769738  0.4354579706633309  0.1444949034326817
  0.1563672523634810  0.5645420293072149  0.6444949239590333
  0.0389939715869475  0.7500000176088264  0.5988955603212963
  0.1919619640296787  0.2500000000663931  0.0988954986818636
  0.0908079748506466  0.2500000000663931  0.9621675553037875
  0.1401479515887498  0.7500000176088264  0.4621674731508427
 
  0.00000000E+00  0.00000000E+00  0.00000000E+00
  0.00000000E+00  0.00000000E+00  0.00000000E+00
  0.00000000E+00  0.00000000E+00  0.00000000E+00
  0.00000000E+00  0.00000000E+00  0.00000000E+00
  0.00000000E+00  0.00000000E+00  0.00000000E+00
  0.00000000E+00  0.00000000E+00  0.00000000E+00
  0.00000000E+00  0.00000000E+00  0.00000000E+00
  0.00000000E+00  0.00000000E+00  0.00000000E+00
  0.00000000E+00  0.00000000E+00  0.00000000E+00
  0.00000000E+00  0.00000000E+00  0.00000000E+00
  0.00000000E+00  0.00000000E+00  0.00000000E+00
  0.00000000E+00  0.00000000E+00  0.00000000E+00
