ba8 si16
1.0
19.5047340393         0.0000000000         0.0000000000
0.0000000000         6.7778496742         0.0000000000
0.0000000000         0.0000000000        11.6021432877
Ba   Si
4     8
Cartesian
0.136700660         1.694462419         8.020677567
4.368033409         5.083387375         2.219605207
1.435289383         5.083387375        10.519083023
3.069444656         1.694462419         4.718012333
1.750269413         0.491671979         1.702544928
2.754464626         6.286177635         7.503616810
1.750269413         2.897252798         1.702544928
2.754464626         3.880596876         7.503616810
0.746929944         5.083387375         6.868480682
3.757804155         1.694462419         1.067408323
1.781117797         1.694462419        11.218576431
2.723616123         5.083387375         5.417503834
