ba8 si16                                
   1.00000000000000     
    46.2633565693413118    0.0000000000000000    0.0000000000000000
     0.0000000000000000    6.6787276855735289    0.0000000000000000
     0.0000000000000000    0.0000000000000000   11.4353665251797523
   Ba   Si
    28    56
Direct
  0.0070672906368693  0.2500000000663931  0.7007021096968551
  0.1969636397835151  0.2500000000663931  0.6901966269018430
  0.3904223272852076  0.2500000000663931  0.6906881728172719
  0.5861060599568206  0.2500000000663931  0.6927693679821351
  0.1904691174736420  0.7500000176088264  0.3085631648050375
  0.3841902680244373  0.7500000176088264  0.3090157785758086
  0.5773672572018741  0.7500000176088264  0.3087307021226940
  0.0915429981082297  0.7500000176088264  0.1927693062564704
  0.2872267308013295  0.7500000176088264  0.1906881110916073
  0.4806854592845691  0.7500000176088264  0.1901965651761783
  0.6705818090759258  0.7500000176088264  0.2007020479711905
  0.1002818418447232  0.2500000000663931  0.8087307432487157
  0.2934588310436468  0.2500000000663931  0.8090158197018301
  0.4871799405914082  0.2500000000663931  0.8085632059310590
  0.0415595900401924  0.7500000176088264  0.9125515263708330
  0.2249304581060351  0.7500000176088264  0.9059600817294997
  0.4181204914759644  0.7500000176088264  0.9051490692169338
  0.6105796706833752  0.7500000176088264  0.8959257037445896
  0.1618014509975104  0.2500000000663931  0.0930189744921751
  0.3561245742652380  0.2500000000663931  0.0936979222191611
  0.5494086706234445  0.2500000000663931  0.0950693567058851
  0.0670694078831919  0.2500000000663931  0.3959257859578445
  0.2595285870906028  0.2500000000663931  0.4051491514301888
  0.4527186204820189  0.2500000000663931  0.4059601639427544
  0.6360894885263746  0.2500000000663931  0.4125516085840879
  0.1282404079431227  0.7500000176088264  0.5950693362053630
  0.3215245043013292  0.7500000176088264  0.5936979017186390
  0.5158476275690567  0.7500000176088264  0.5930189539916528
  0.0349887741284505  0.0709140187199039  0.1463656265501356
  0.2304717159580915  0.0698454920974909  0.1461773883998490
  0.4242358674359946  0.0697772090295318  0.1456860959337617
  0.6175123748219175  0.0709264889626025  0.1422792264708901
  0.1573313589995139  0.9305244182489437  0.8536675023177062
  0.3500288810760150  0.9302544657371521  0.8531951533924307
  0.5438218647530905  0.9308066247417259  0.8529004869312173
  0.0601366934938914  0.9290735021555209  0.6422792469972689
  0.2534131906290557  0.9302227820885917  0.6456861164601406
  0.4471773421069588  0.9301544990206326  0.6461774089262279
  0.6426602737073422  0.9290859723982196  0.6463656470765144
  0.1338271830612013  0.0691933663763974  0.3529004869182856
  0.3276202179920691  0.0697455253809713  0.3531951533794988
  0.5203177503193358  0.0694755728691796  0.3536675023047745
  0.1573313589995139  0.5694755817067895  0.8536675023177062
  0.3500288810760150  0.5697455342185811  0.8531951533924307
  0.5438218647530905  0.5691933752140073  0.8529004869312173
  0.0349887741284505  0.4290859724129775  0.1463656265501356
  0.2304717159580915  0.4301544990353905  0.1461773883998490
  0.4242358674359946  0.4302227821033496  0.1456860959337617
  0.6175123748219175  0.4290735021702788  0.1422792264708901
  0.1338271830612013  0.4308066247564841  0.3529004869182856
  0.3276202179920691  0.4302544657519101  0.3531951533794988
  0.5203177503193358  0.4305244182637017  0.3536675023047745
  0.0601366934938914  0.5709264978002123  0.6422792469972689
  0.2534131906290557  0.5697772178671415  0.6456861164601406
  0.4471773421069588  0.5698455009351006  0.6461774089262279
  0.6426602737073422  0.5709140275575136  0.6463656470765144
  0.0144937521582470  0.7500000176088264  0.6167788448746591
  0.2099855462336824  0.7500000176088264  0.5914378414549469
  0.4036814238568560  0.7500000176088264  0.5920598892448172
  0.5984619214164317  0.7500000176088264  0.5829285158734939
  0.1771160600342531  0.2500000000663931  0.4077897801511637
  0.3709922997246833  0.2500000000663931  0.4081305063686708
  0.5633800882095039  0.2500000000663931  0.4088330242605991
  0.0791871827662881  0.2500000000663931  0.0829284542340183
  0.2739676752112281  0.2500000000663931  0.0920598276053416
  0.4676635118313679  0.2500000000663931  0.0914377798154713
  0.6631553020815679  0.2500000000663931  0.1167787832351834
  0.1142689698770331  0.7500000176088264  0.9088330653866209
  0.3066567583403670  0.7500000176088264  0.9081305474946924
  0.5005330390338383  0.7500000176088264  0.9077898212771855
  0.0352516231929201  0.2500000000663931  0.9631865459401641
  0.2314019688357430  0.2500000000663931  0.9639348337107079
  0.4250960723220286  0.2500000000663931  0.9633745257015508
  0.6270546990190951  0.2500000000663931  0.9614467327650087
  0.1559120096052811  0.7500000176088264  0.0368089832332647
  0.3493231257128252  0.7500000176088264  0.0356029958397182
  0.5430353922364005  0.7500000176088264  0.0354943230703053
  0.0505943897982306  0.7500000176088264  0.4614466506120860
  0.2525530062445386  0.7500000176088264  0.4633744435486281
  0.4462471097523181  0.7500000176088264  0.4639347515577854
  0.6423974425655671  0.7500000176088264  0.4631864637872414
  0.1346136760794083  0.2500000000663931  0.5354943076550522
  0.3283259528537420  0.2500000000663931  0.5356029804244652
  0.5217370792120518  0.2500000000663931  0.5368089678180116
 
  0.00000000E+00  0.00000000E+00  0.00000000E+00
  0.00000000E+00  0.00000000E+00  0.00000000E+00
  0.00000000E+00  0.00000000E+00  0.00000000E+00
  0.00000000E+00  0.00000000E+00  0.00000000E+00
  0.00000000E+00  0.00000000E+00  0.00000000E+00
  0.00000000E+00  0.00000000E+00  0.00000000E+00
  0.00000000E+00  0.00000000E+00  0.00000000E+00
  0.00000000E+00  0.00000000E+00  0.00000000E+00
  0.00000000E+00  0.00000000E+00  0.00000000E+00
  0.00000000E+00  0.00000000E+00  0.00000000E+00
  0.00000000E+00  0.00000000E+00  0.00000000E+00
  0.00000000E+00  0.00000000E+00  0.00000000E+00
  0.00000000E+00  0.00000000E+00  0.00000000E+00
  0.00000000E+00  0.00000000E+00  0.00000000E+00
  0.00000000E+00  0.00000000E+00  0.00000000E+00
  0.00000000E+00  0.00000000E+00  0.00000000E+00
  0.00000000E+00  0.00000000E+00  0.00000000E+00
  0.00000000E+00  0.00000000E+00  0.00000000E+00
  0.00000000E+00  0.00000000E+00  0.00000000E+00
  0.00000000E+00  0.00000000E+00  0.00000000E+00
  0.00000000E+00  0.00000000E+00  0.00000000E+00
  0.00000000E+00  0.00000000E+00  0.00000000E+00
  0.00000000E+00  0.00000000E+00  0.00000000E+00
  0.00000000E+00  0.00000000E+00  0.00000000E+00
  0.00000000E+00  0.00000000E+00  0.00000000E+00
  0.00000000E+00  0.00000000E+00  0.00000000E+00
  0.00000000E+00  0.00000000E+00  0.00000000E+00
  0.00000000E+00  0.00000000E+00  0.00000000E+00
  0.00000000E+00  0.00000000E+00  0.00000000E+00
  0.00000000E+00  0.00000000E+00  0.00000000E+00
  0.00000000E+00  0.00000000E+00  0.00000000E+00
  0.00000000E+00  0.00000000E+00  0.00000000E+00
  0.00000000E+00  0.00000000E+00  0.00000000E+00
  0.00000000E+00  0.00000000E+00  0.00000000E+00
  0.00000000E+00  0.00000000E+00  0.00000000E+00
  0.00000000E+00  0.00000000E+00  0.00000000E+00
  0.00000000E+00  0.00000000E+00  0.00000000E+00
  0.00000000E+00  0.00000000E+00  0.00000000E+00
  0.00000000E+00  0.00000000E+00  0.00000000E+00
  0.00000000E+00  0.00000000E+00  0.00000000E+00
  0.00000000E+00  0.00000000E+00  0.00000000E+00
  0.00000000E+00  0.00000000E+00  0.00000000E+00
  0.00000000E+00  0.00000000E+00  0.00000000E+00
  0.00000000E+00  0.00000000E+00  0.00000000E+00
  0.00000000E+00  0.00000000E+00  0.00000000E+00
  0.00000000E+00  0.00000000E+00  0.00000000E+00
  0.00000000E+00  0.00000000E+00  0.00000000E+00
  0.00000000E+00  0.00000000E+00  0.00000000E+00
  0.00000000E+00  0.00000000E+00  0.00000000E+00
  0.00000000E+00  0.00000000E+00  0.00000000E+00
  0.00000000E+00  0.00000000E+00  0.00000000E+00
  0.00000000E+00  0.00000000E+00  0.00000000E+00
  0.00000000E+00  0.00000000E+00  0.00000000E+00
  0.00000000E+00  0.00000000E+00  0.00000000E+00
  0.00000000E+00  0.00000000E+00  0.00000000E+00
  0.00000000E+00  0.00000000E+00  0.00000000E+00
  0.00000000E+00  0.00000000E+00  0.00000000E+00
  0.00000000E+00  0.00000000E+00  0.00000000E+00
  0.00000000E+00  0.00000000E+00  0.00000000E+00
  0.00000000E+00  0.00000000E+00  0.00000000E+00
  0.00000000E+00  0.00000000E+00  0.00000000E+00
  0.00000000E+00  0.00000000E+00  0.00000000E+00
  0.00000000E+00  0.00000000E+00  0.00000000E+00
  0.00000000E+00  0.00000000E+00  0.00000000E+00
  0.00000000E+00  0.00000000E+00  0.00000000E+00
  0.00000000E+00  0.00000000E+00  0.00000000E+00
  0.00000000E+00  0.00000000E+00  0.00000000E+00
  0.00000000E+00  0.00000000E+00  0.00000000E+00
  0.00000000E+00  0.00000000E+00  0.00000000E+00
  0.00000000E+00  0.00000000E+00  0.00000000E+00
  0.00000000E+00  0.00000000E+00  0.00000000E+00
  0.00000000E+00  0.00000000E+00  0.00000000E+00
  0.00000000E+00  0.00000000E+00  0.00000000E+00
  0.00000000E+00  0.00000000E+00  0.00000000E+00
  0.00000000E+00  0.00000000E+00  0.00000000E+00
  0.00000000E+00  0.00000000E+00  0.00000000E+00
  0.00000000E+00  0.00000000E+00  0.00000000E+00
  0.00000000E+00  0.00000000E+00  0.00000000E+00
  0.00000000E+00  0.00000000E+00  0.00000000E+00
  0.00000000E+00  0.00000000E+00  0.00000000E+00
  0.00000000E+00  0.00000000E+00  0.00000000E+00
  0.00000000E+00  0.00000000E+00  0.00000000E+00
  0.00000000E+00  0.00000000E+00  0.00000000E+00
  0.00000000E+00  0.00000000E+00  0.00000000E+00
