ba8 si16                                
   1.00000000000000     
    46.2616623479232700    0.0000000000000000    0.0000000000000000
     0.0000000000000000    6.6773249633622722    0.0000000000000000
     0.0000000000000000    0.0000000000000000   11.4364717481643972
   Ba   Si
    28    56
Direct
  0.0070669029184945  0.2500000000663931  0.7005395295723836
  0.1969950017124715  0.2500000000663931  0.6900850037656767
  0.3904134707045705  0.2500000000663931  0.6905732945609901
  0.5861184517669696  0.2500000000663931  0.6927737936320271
  0.1904734698514354  0.7500000176088264  0.3087000386549154
  0.3841709594015287  0.7500000176088264  0.3091001631584500
  0.5772990186172759  0.7500000176088264  0.3087897176543594
  0.0915306062980808  0.7500000176088264  0.1927737319063625
  0.2872355873819666  0.7500000176088264  0.1905732328353256
  0.4806540973556123  0.7500000176088264  0.1900849420400123
  0.6705821967943008  0.7500000176088264  0.2005394678467191
  0.1003500804293211  0.2500000000663931  0.8087897587803812
  0.2934781396665554  0.2500000000663931  0.8091002042844718
  0.4871755882136151  0.2500000000663931  0.8087000797809369
  0.0416110136074508  0.7500000176088264  0.9122773418583299
  0.2250646750266659  0.7500000176088264  0.9058211947887537
  0.4181131655583902  0.7500000176088264  0.9050046328495578
  0.6106325483346081  0.7500000176088264  0.8957398669500350
  0.1618080725506673  0.2500000000663931  0.0931582286105303
  0.3561023733854284  0.2500000000663931  0.0937389537234245
  0.5493202835482101  0.2500000000663931  0.0953202193908993
  0.0670165302319592  0.2500000000663931  0.3957399491632895
  0.2595359130081770  0.2500000000663931  0.4050047150628129
  0.4525844035613881  0.2500000000663931  0.4058212770020084
  0.6360380649591165  0.2500000000663931  0.4122774240715845
  0.1283287950183570  0.7500000176088264  0.5953201988903775
  0.3215467051811388  0.7500000176088264  0.5937389332229021
  0.5158410060159001  0.7500000176088264  0.5931582081100081
  0.0349802577510282  0.0708782286303159  0.1460732678989111
  0.2304655224261019  0.0697375953395756  0.1461079421122480
  0.4241842395274190  0.0696725700673946  0.1455217716838288
  0.6174427821967284  0.0708909813124588  0.1419231410522556
  0.1574587988692230  0.9306557885234135  0.8540271301577335
  0.3500520951036347  0.9303260025274939  0.8532218104889788
  0.5438494821552853  0.9309040436966023  0.8529622480550874
  0.0602062861190801  0.9291090098056647  0.6419231615786345
  0.2534648185376313  0.9303274210507290  0.6455217922102076
  0.4471835356389484  0.9302623957785480  0.6461079626386269
  0.6426687900847576  0.9291217624878075  0.6460732884252898
  0.1337995656590067  0.0690959474215212  0.3529622480421556
  0.3275970039644494  0.0696739885906293  0.3532218104760467
  0.5201903104496265  0.0693442025947101  0.3540271301448016
  0.1574587988692230  0.5693442114323197  0.8540271301577335
  0.3500520951036347  0.5696739974282393  0.8532218104889788
  0.5438494821552853  0.5690959562591309  0.8529622480550874
  0.0349802577510282  0.4291217625025654  0.1460732678989111
  0.2304655224261019  0.4302623957933060  0.1461079421122480
  0.4241842395274190  0.4303274210654867  0.1455217716838288
  0.6174427821967284  0.4291090098204228  0.1419231410522556
  0.1337995656590067  0.4309040437113603  0.3529622480421556
  0.3275970039644494  0.4303260025422523  0.3532218104760467
  0.5201903104496265  0.4306557885381711  0.3540271301448016
  0.0602062861190801  0.5708909901500685  0.6419231615786345
  0.2534648185376313  0.5696725789050042  0.6455217922102076
  0.4471835356389484  0.5697376041771852  0.6461079626386269
  0.6426687900847576  0.5708782374679257  0.6460732884252898
  0.0145249615076872  0.7500000176088264  0.6180051892965844
  0.2100252550188996  0.7500000176088264  0.5915023045897219
  0.4036840687422292  0.7500000176088264  0.5920947917315534
  0.5984543884647442  0.7500000176088264  0.5829665503806358
  0.1771004998408916  0.2500000000663931  0.4077181185070885
  0.3709675664092713  0.2500000000663931  0.4080629234698364
  0.5632662698865711  0.2500000000663931  0.4090005453501014
  0.0791947157179760  0.2500000000663931  0.0829664887411606
  0.2739650303258550  0.2500000000663931  0.0920947300920779
  0.4676238030461508  0.2500000000663931  0.0915022429502461
  0.6631240927321280  0.2500000000663931  0.1180051276571089
  0.1143827881999660  0.7500000176088264  0.9090005864761235
  0.3066814916557790  0.7500000176088264  0.9080629645958582
  0.5005485992271926  0.7500000176088264  0.9077181596331103
  0.0352770989033343  0.2500000000663931  0.9629471948970081
  0.2313853502625916  0.2500000000663931  0.9639146356259612
  0.4250587192872348  0.2500000000663931  0.9632857560525211
  0.6273717542373533  0.2500000000663931  0.9613501096312569
  0.1560166593408241  0.7500000176088264  0.0370967735175607
  0.3493404400448955  0.7500000176088264  0.0356037706052267
  0.5430495292431659  0.7500000176088264  0.0355435941382980
  0.0502773345799723  0.7500000176088264  0.4613500274783346
  0.2525903592793324  0.7500000176088264  0.4632856738995985
  0.4462637283254695  0.7500000176088264  0.4639145534730386
  0.6423719668551527  0.7500000176088264  0.4629471127440853
  0.1345995390726431  0.2500000000663931  0.5355435787230451
  0.3283086385216717  0.2500000000663931  0.5356037551899733
  0.5216324294765085  0.2500000000663931  0.5370967581023077
 
  0.00000000E+00  0.00000000E+00  0.00000000E+00
  0.00000000E+00  0.00000000E+00  0.00000000E+00
  0.00000000E+00  0.00000000E+00  0.00000000E+00
  0.00000000E+00  0.00000000E+00  0.00000000E+00
  0.00000000E+00  0.00000000E+00  0.00000000E+00
  0.00000000E+00  0.00000000E+00  0.00000000E+00
  0.00000000E+00  0.00000000E+00  0.00000000E+00
  0.00000000E+00  0.00000000E+00  0.00000000E+00
  0.00000000E+00  0.00000000E+00  0.00000000E+00
  0.00000000E+00  0.00000000E+00  0.00000000E+00
  0.00000000E+00  0.00000000E+00  0.00000000E+00
  0.00000000E+00  0.00000000E+00  0.00000000E+00
  0.00000000E+00  0.00000000E+00  0.00000000E+00
  0.00000000E+00  0.00000000E+00  0.00000000E+00
  0.00000000E+00  0.00000000E+00  0.00000000E+00
  0.00000000E+00  0.00000000E+00  0.00000000E+00
  0.00000000E+00  0.00000000E+00  0.00000000E+00
  0.00000000E+00  0.00000000E+00  0.00000000E+00
  0.00000000E+00  0.00000000E+00  0.00000000E+00
  0.00000000E+00  0.00000000E+00  0.00000000E+00
  0.00000000E+00  0.00000000E+00  0.00000000E+00
  0.00000000E+00  0.00000000E+00  0.00000000E+00
  0.00000000E+00  0.00000000E+00  0.00000000E+00
  0.00000000E+00  0.00000000E+00  0.00000000E+00
  0.00000000E+00  0.00000000E+00  0.00000000E+00
  0.00000000E+00  0.00000000E+00  0.00000000E+00
  0.00000000E+00  0.00000000E+00  0.00000000E+00
  0.00000000E+00  0.00000000E+00  0.00000000E+00
  0.00000000E+00  0.00000000E+00  0.00000000E+00
  0.00000000E+00  0.00000000E+00  0.00000000E+00
  0.00000000E+00  0.00000000E+00  0.00000000E+00
  0.00000000E+00  0.00000000E+00  0.00000000E+00
  0.00000000E+00  0.00000000E+00  0.00000000E+00
  0.00000000E+00  0.00000000E+00  0.00000000E+00
  0.00000000E+00  0.00000000E+00  0.00000000E+00
  0.00000000E+00  0.00000000E+00  0.00000000E+00
  0.00000000E+00  0.00000000E+00  0.00000000E+00
  0.00000000E+00  0.00000000E+00  0.00000000E+00
  0.00000000E+00  0.00000000E+00  0.00000000E+00
  0.00000000E+00  0.00000000E+00  0.00000000E+00
  0.00000000E+00  0.00000000E+00  0.00000000E+00
  0.00000000E+00  0.00000000E+00  0.00000000E+00
  0.00000000E+00  0.00000000E+00  0.00000000E+00
  0.00000000E+00  0.00000000E+00  0.00000000E+00
  0.00000000E+00  0.00000000E+00  0.00000000E+00
  0.00000000E+00  0.00000000E+00  0.00000000E+00
  0.00000000E+00  0.00000000E+00  0.00000000E+00
  0.00000000E+00  0.00000000E+00  0.00000000E+00
  0.00000000E+00  0.00000000E+00  0.00000000E+00
  0.00000000E+00  0.00000000E+00  0.00000000E+00
  0.00000000E+00  0.00000000E+00  0.00000000E+00
  0.00000000E+00  0.00000000E+00  0.00000000E+00
  0.00000000E+00  0.00000000E+00  0.00000000E+00
  0.00000000E+00  0.00000000E+00  0.00000000E+00
  0.00000000E+00  0.00000000E+00  0.00000000E+00
  0.00000000E+00  0.00000000E+00  0.00000000E+00
  0.00000000E+00  0.00000000E+00  0.00000000E+00
  0.00000000E+00  0.00000000E+00  0.00000000E+00
  0.00000000E+00  0.00000000E+00  0.00000000E+00
  0.00000000E+00  0.00000000E+00  0.00000000E+00
  0.00000000E+00  0.00000000E+00  0.00000000E+00
  0.00000000E+00  0.00000000E+00  0.00000000E+00
  0.00000000E+00  0.00000000E+00  0.00000000E+00
  0.00000000E+00  0.00000000E+00  0.00000000E+00
  0.00000000E+00  0.00000000E+00  0.00000000E+00
  0.00000000E+00  0.00000000E+00  0.00000000E+00
  0.00000000E+00  0.00000000E+00  0.00000000E+00
  0.00000000E+00  0.00000000E+00  0.00000000E+00
  0.00000000E+00  0.00000000E+00  0.00000000E+00
  0.00000000E+00  0.00000000E+00  0.00000000E+00
  0.00000000E+00  0.00000000E+00  0.00000000E+00
  0.00000000E+00  0.00000000E+00  0.00000000E+00
  0.00000000E+00  0.00000000E+00  0.00000000E+00
  0.00000000E+00  0.00000000E+00  0.00000000E+00
  0.00000000E+00  0.00000000E+00  0.00000000E+00
  0.00000000E+00  0.00000000E+00  0.00000000E+00
  0.00000000E+00  0.00000000E+00  0.00000000E+00
  0.00000000E+00  0.00000000E+00  0.00000000E+00
  0.00000000E+00  0.00000000E+00  0.00000000E+00
  0.00000000E+00  0.00000000E+00  0.00000000E+00
  0.00000000E+00  0.00000000E+00  0.00000000E+00
  0.00000000E+00  0.00000000E+00  0.00000000E+00
  0.00000000E+00  0.00000000E+00  0.00000000E+00
  0.00000000E+00  0.00000000E+00  0.00000000E+00
