ba8 si16                                
   1.00000000000000     
    21.6003635839055370    0.0000000000000000    0.1916959312299204
     0.0000000000000000    5.9473194397939677    0.0000000000000000
     0.1143201632131954    0.0000000000000000   11.1907474499635189
   Ba   Si
     4     8
Direct
  0.0018465990133330  0.2500000000663931  0.7565866080844240
  0.1846784172820763  0.7500000176088264  0.2552353447242453
  0.1391884558310950  0.7500000176088264  0.8763938884548855
  0.0376147818319719  0.2500000000663931  0.3868558082777515
  0.0641777151266925  0.0381065818793847  0.1202400286360579
  0.1217582804097442  0.9632932093703253  0.6086486743660863
  0.0641777151266925  0.4618934092534965  0.1202400286360579
  0.1217582804097442  0.5367067905854079  0.6086486743660863
  0.0223932907105275  0.7500000176088264  0.6217945985627483
  0.1635156875594868  0.2500000000663931  0.1197398768702343
  0.0986252810343606  0.2500000000663931  0.9499266787470466
  0.0813338568713876  0.7500000176088264  0.4470216296667957
 
  0.00000000E+00  0.00000000E+00  0.00000000E+00
  0.00000000E+00  0.00000000E+00  0.00000000E+00
  0.00000000E+00  0.00000000E+00  0.00000000E+00
  0.00000000E+00  0.00000000E+00  0.00000000E+00
  0.00000000E+00  0.00000000E+00  0.00000000E+00
  0.00000000E+00  0.00000000E+00  0.00000000E+00
  0.00000000E+00  0.00000000E+00  0.00000000E+00
  0.00000000E+00  0.00000000E+00  0.00000000E+00
  0.00000000E+00  0.00000000E+00  0.00000000E+00
  0.00000000E+00  0.00000000E+00  0.00000000E+00
  0.00000000E+00  0.00000000E+00  0.00000000E+00
  0.00000000E+00  0.00000000E+00  0.00000000E+00
