ba8 si16                                
   1.00000000000000     
     10.0094680785999994    0.0000000000000000    0.0000000000000000
     0.0000000000000000    6.7778496741999996    0.0000000000000000
     0.0000000000000000    0.0000000000000000   11.6021432877000006
   Ba   Si
     8    16
Selective Dynamics
Direct
  0.0145141708076329  0.2500000000663931  0.6926836969087203 F T T
  0.9854858324555987  0.7500000176088264  0.3073163031171364 F T T
  0.4854858324888947  0.7500000176088264  0.1926836351830557 F T T
  0.5145141674445061  0.2500000000663931  0.8073163442431580 F T T
  0.1593481187257440  0.7500000176088264  0.9065807059996533 F T T
  0.8406518813186578  0.2500000000663931  0.0934192734265604 F T T
  0.3406518812409600  0.2500000000663931  0.4065807882129082 F T T
  0.6593481186924409  0.7500000176088264  0.5934192529260383 F T T
  0.1940367638417748  0.0715793014918763  0.1459952755104597 F T T
  0.8059632362026198  0.9284206896262470  0.8540047040019499 F T T
  0.3059632361249222  0.9284206896262470  0.6459952960368386 F T T
  0.6940367638084789  0.0715793014918763  0.3540047039890182 F T T
  0.8059632362026198  0.5715793103294862  0.8540047040019499 F T T
  0.1940367638417748  0.4284206896410052  0.1459952755104597 F T T
  0.6940367638084789  0.4284206896410052  0.3540047039890182 F T T
  0.3059632361249222  0.5715793103294862  0.6459952960368386 F T T
  0.0830256946357405  0.7500000176088264  0.5903019348105253 F T T
  0.9169742855406715  0.2500000000663931  0.4096980651291425 F T T
  0.4169743119906248  0.2500000000663931  0.0903018731710496 F T T
  0.5830257144704272  0.7500000176088264  0.9096981062551642 F T T
  0.1967909835745440  0.2500000000663931  0.9653936950144274 F T T
  0.8032090032615291  0.7500000176088264  0.0346063203534184 F T T
  0.3032090031838314  0.7500000176088264  0.4653936128615047 F T T
  0.6967909967495696  0.2500000000663931  0.5346063049381652 F T T
