ba8 si16                                
   1.00000000000000     
     10.7683621085607815   -0.0000000000000000    0.0000000000000000
     0.0000000000000000    6.7613155415291608    0.0000000000000000
     0.0000000000000000    0.0000000000000000   11.5771242761032003
   Ba   Si
     8    16
Direct
  0.0146931435771048  0.2500000000663931  0.6931447361324311
  0.9853068596861267  0.7500000176088264  0.3068552638934257
  0.4853068597194226  0.7500000176088264  0.1931446744067665
  0.5146931402139781  0.2500000000663931  0.8068553050194472
  0.1602637740223924  0.7500000176088264  0.9066458277207160
  0.8397362260220094  0.2500000000663931  0.0933541517054978
  0.3397362259443114  0.2500000000663931  0.4066459099339708
  0.6602637739890893  0.7500000176088264  0.5933541312049756
  0.1940784474289416  0.0713931007133003  0.1457656641887957
  0.8059215526154532  0.9286068904048232  0.8542343153236140
  0.3059215525377553  0.9286068904048232  0.6457656847151745
  0.6940784473956455  0.0713931007133003  0.3542343153106821
  0.8059215526154532  0.5713931095509099  0.8542343153236140
  0.1940784474289416  0.4286068904195811  0.1457656641887957
  0.6940784473956455  0.4286068904195811  0.3542343153106821
  0.3059215525377553  0.5713931095509099  0.6457656847151745
  0.0820461040116781  0.7500000176088264  0.5900134064172912
  0.9179538761647339  0.2500000000663931  0.4099865935223769
  0.4179539026146873  0.2500000000663931  0.0900133447778153
  0.5820461238463648  0.7500000176088264  0.9099866346483984
  0.1968922876584664  0.2500000000663931  0.9650246306101369
  0.8031076991776067  0.7500000176088264  0.0349753847577088
  0.3031076990999089  0.7500000176088264  0.4650245484572142
  0.6968923008334920  0.2500000000663931  0.5349753693424557
 
  0.00000000E+00  0.00000000E+00  0.00000000E+00
  0.00000000E+00  0.00000000E+00  0.00000000E+00
  0.00000000E+00  0.00000000E+00  0.00000000E+00
  0.00000000E+00  0.00000000E+00  0.00000000E+00
  0.00000000E+00  0.00000000E+00  0.00000000E+00
  0.00000000E+00  0.00000000E+00  0.00000000E+00
  0.00000000E+00  0.00000000E+00  0.00000000E+00
  0.00000000E+00  0.00000000E+00  0.00000000E+00
  0.00000000E+00  0.00000000E+00  0.00000000E+00
  0.00000000E+00  0.00000000E+00  0.00000000E+00
  0.00000000E+00  0.00000000E+00  0.00000000E+00
  0.00000000E+00  0.00000000E+00  0.00000000E+00
  0.00000000E+00  0.00000000E+00  0.00000000E+00
  0.00000000E+00  0.00000000E+00  0.00000000E+00
  0.00000000E+00  0.00000000E+00  0.00000000E+00
  0.00000000E+00  0.00000000E+00  0.00000000E+00
  0.00000000E+00  0.00000000E+00  0.00000000E+00
  0.00000000E+00  0.00000000E+00  0.00000000E+00
  0.00000000E+00  0.00000000E+00  0.00000000E+00
  0.00000000E+00  0.00000000E+00  0.00000000E+00
  0.00000000E+00  0.00000000E+00  0.00000000E+00
  0.00000000E+00  0.00000000E+00  0.00000000E+00
  0.00000000E+00  0.00000000E+00  0.00000000E+00
  0.00000000E+00  0.00000000E+00  0.00000000E+00
