ba8 ge16                                
   1.00000000000000     
     9.0811199975473365   -0.0000000000000000    0.0000000000000000
     0.0000000000000000    6.8154852786398754    0.0000000000000000
     0.0000000000000000    0.0000000000000000   11.6642106246451469
   Ba   Ge
     8    16
Direct
  0.0149766202991975  0.2500000000663931  0.6916108633464979
  0.9850233829640339  0.7500000176088264  0.3083891366793586
  0.4850233829973301  0.7500000176088264  0.1916108016208335
  0.5149766169360709  0.2500000000663931  0.8083891778053804
  0.1583998596616702  0.7500000176088264  0.9068190915259916
  0.8416001403827316  0.2500000000663931  0.0931808879002222
  0.3416001403050338  0.2500000000663931  0.4068191737392464
  0.6583998596283671  0.7500000176088264  0.5931808673997000
  0.1907366271498346  0.0600891806786302  0.1507847654191080
  0.8092633728945601  0.9399108104394932  0.8492152140933018
  0.3092633728168622  0.9399108104394932  0.6507847859454867
  0.6907366271165386  0.0600891806786302  0.3492152140803698
  0.8092633728945601  0.5600891895162400  0.8492152140933018
  0.1907366271498346  0.4399108104542512  0.1507847654191080
  0.6907366271165386  0.4399108104542512  0.3492152140803698
  0.3092633728168622  0.5600891895162400  0.6507847859454867
  0.0720340117262743  0.7500000176088264  0.5923708031800674
  0.9279659684501376  0.2500000000663931  0.4076291967596004
  0.4279659949000910  0.2500000000663931  0.0923707415405917
  0.5720340315609611  0.7500000176088264  0.9076292378856221
  0.1939575767921261  0.2500000000663931  0.9583766665574024
  0.8060424100439469  0.7500000176088264  0.0416233488104433
  0.3060424099662493  0.7500000176088264  0.4583765844044797
  0.6939575899671517  0.2500000000663931  0.5416233333951902
 
  0.00000000E+00  0.00000000E+00  0.00000000E+00
  0.00000000E+00  0.00000000E+00  0.00000000E+00
  0.00000000E+00  0.00000000E+00  0.00000000E+00
  0.00000000E+00  0.00000000E+00  0.00000000E+00
  0.00000000E+00  0.00000000E+00  0.00000000E+00
  0.00000000E+00  0.00000000E+00  0.00000000E+00
  0.00000000E+00  0.00000000E+00  0.00000000E+00
  0.00000000E+00  0.00000000E+00  0.00000000E+00
  0.00000000E+00  0.00000000E+00  0.00000000E+00
  0.00000000E+00  0.00000000E+00  0.00000000E+00
  0.00000000E+00  0.00000000E+00  0.00000000E+00
  0.00000000E+00  0.00000000E+00  0.00000000E+00
  0.00000000E+00  0.00000000E+00  0.00000000E+00
  0.00000000E+00  0.00000000E+00  0.00000000E+00
  0.00000000E+00  0.00000000E+00  0.00000000E+00
  0.00000000E+00  0.00000000E+00  0.00000000E+00
  0.00000000E+00  0.00000000E+00  0.00000000E+00
  0.00000000E+00  0.00000000E+00  0.00000000E+00
  0.00000000E+00  0.00000000E+00  0.00000000E+00
  0.00000000E+00  0.00000000E+00  0.00000000E+00
  0.00000000E+00  0.00000000E+00  0.00000000E+00
  0.00000000E+00  0.00000000E+00  0.00000000E+00
  0.00000000E+00  0.00000000E+00  0.00000000E+00
  0.00000000E+00  0.00000000E+00  0.00000000E+00
