ba8 si16                                
   1.00000000000000     
    72.9442583513656473    0.0000000000000000    0.0000000000000000
     0.0000000000000000    6.6979448333039251    0.0000000000000000
     0.0000000000000000    0.0000000000000000   11.4663832051474568
   Ba   Si
    52   104
Direct
  0.0044914996411151  0.2500000000663931  0.7009233155425009
  0.1245715469518142  0.2500000000663931  0.6906376329652437
  0.2469103036197300  0.2500000000663931  0.6912520677418016
  0.3694007138869018  0.2500000000663931  0.6913788426615458
  0.4918445147560175  0.2500000000663931  0.6915059750237963
  0.6143508194597065  0.2500000000663931  0.6909928096739806
  0.7382317603999249  0.2500000000663931  0.6930616134394834
  0.1205101710662268  0.7500000176088264  0.3082107942131448
  0.2430124395077824  0.7500000176088264  0.3083914295526622
  0.3654678739857060  0.7500000176088264  0.3088569029151224
  0.4879288596149435  0.7500000176088264  0.3085199963562995
  0.6104375467195277  0.7500000176088264  0.3086316724590642
  0.7325857096018443  0.7500000176088264  0.3084585910515147
  0.0578573830984389  0.7500000176088264  0.1930615517138185
  0.1817383240386500  0.7500000176088264  0.1909927479483156
  0.3042446157872052  0.7500000176088264  0.1915059132981316
  0.4266883907188537  0.7500000176088264  0.1913787809358811
  0.5491788269098929  0.7500000176088264  0.1912520060161371
  0.6715175706226753  0.7500000176088264  0.1906375712395789
  0.7915976185315088  0.7500000176088264  0.2009232538168359
  0.0635034079590445  0.2500000000663931  0.8084586321775369
  0.1856515708549545  0.2500000000663931  0.8086317135850860
  0.3081602709146795  0.2500000000663931  0.8085200374823209
  0.4306212565439169  0.2500000000663931  0.8088569440411439
  0.5530766650979730  0.2500000000663931  0.8083914706786840
  0.6755789205707947  0.2500000000663931  0.8082108353391665
  0.0262237459057033  0.7500000176088264  0.9119662604866979
  0.1424289825446846  0.7500000176088264  0.9059633382729896
  0.2646877057357170  0.7500000176088264  0.9059273647992020
  0.3871060810072968  0.7500000176088264  0.9061459120822043
  0.5096149485154050  0.7500000176088264  0.9059664884006815
  0.6319922620440761  0.7500000176088264  0.9050145317317796
  0.7537882883075470  0.7500000176088264  0.8953611207095271
  0.1022887223176617  0.2500000000663931  0.0931416489985981
  0.2252977848885283  0.2500000000663931  0.0938113139919037
  0.3477176508656159  0.2500000000663931  0.0941794571925382
  0.4702316339787057  0.2500000000663931  0.0941947739293409
  0.5926363652825050  0.2500000000663931  0.0936917889023506
  0.7148398495499168  0.2500000000663931  0.0953603616322908
  0.0423008422220832  0.2500000000663931  0.3953612029227827
  0.1640968684855537  0.2500000000663931  0.4050146139450345
  0.2864741820278178  0.2500000000663931  0.4059665706139357
  0.4089830235984586  0.2500000000663931  0.4061459942954591
  0.5314013729325714  0.2500000000663931  0.4059274470124573
  0.6536601479985381  0.2500000000663931  0.4059634204862443
  0.7698653311584850  0.2500000000663931  0.4119663426999528
  0.0812492874640765  0.7500000176088264  0.5953603411317683
  0.2034527782158515  0.7500000176088264  0.5936917684018287
  0.3258574965509173  0.7500000176088264  0.5941947534288188
  0.4483714278162649  0.7500000176088264  0.5941794366920161
  0.5707913456410948  0.7500000176088264  0.5938112934913813
  0.6938004082255540  0.7500000176088264  0.5931416284980759
  0.0221285371341681  0.0714223796165197  0.1452804575568588
  0.1458539512492938  0.0702815350811590  0.1458956654023860
  0.2685008588390299  0.0701752626990154  0.1460862829265767
  0.3909186132613911  0.0702299184394819  0.1464313237672447
  0.5134338135465882  0.0701822940014219  0.1461975697233804
  0.6358441722492019  0.0701693462210177  0.1454787134587918
  0.7580113557758924  0.0712934608635832  0.1418092682629131
  0.0995957671658921  0.9301787577389620  0.8544936353483445
  0.2214837809208781  0.9298007840221281  0.8534995941243905
  0.3439028129822603  0.9297978403220729  0.8539094632497598
  0.4664032356997183  0.9298210032442655  0.8539956683248159
  0.5888180466752351  0.9298095802837854  0.8534367980713594
  0.7114228356404182  0.9304578472888023  0.8531863123425706
  0.0380777682693672  0.9287065302545401  0.6418092887892921
  0.1602449453252800  0.9298306448971055  0.6454787339851709
  0.2826553169830346  0.9298176971167017  0.6461975902497590
  0.4051704913443572  0.9297700726786419  0.6464313442936239
  0.5275882716905933  0.9298247284191080  0.6460863034529556
  0.6502351922490627  0.9297184560369642  0.6458956859287650
  0.7739605998798251  0.9285776115016038  0.6452804780832376
  0.0846662495122329  0.0695421438293210  0.3531863123296384
  0.2072710449753792  0.0701904108343380  0.3534367980584278
  0.3296858689060371  0.0701789878738578  0.3539956683118841
  0.4521863175609624  0.0702021507960502  0.3539094632368280
  0.5746053496087521  0.0701992070959953  0.3534995941114588
  0.6964933504085966  0.0698212333791617  0.3544936353354122
  0.0995957671658921  0.5698212422167712  0.8544936353483445
  0.2214837809208781  0.5701992159336051  0.8534995941243905
  0.3439028129822603  0.5702021596336603  0.8539094632497598
  0.4664032356997183  0.5701789967114677  0.8539956683248159
  0.5888180466752351  0.5701904196719478  0.8534367980713594
  0.7114228356404182  0.5695421526669309  0.8531863123425706
  0.0221285371341681  0.4285776115163616  0.1452804575568588
  0.1458539512492938  0.4297184560517224  0.1458956654023860
  0.2685008588390299  0.4298247284338660  0.1460862829265767
  0.3909186132613911  0.4297700726933994  0.1464313237672447
  0.5134338135465882  0.4298176971314596  0.1461975697233804
  0.6358441722492019  0.4298306449118638  0.1454787134587918
  0.7580113557758924  0.4287065302692981  0.1418092682629131
  0.0846662495122329  0.4304578473035602  0.3531863123296384
  0.2072710449753792  0.4298095802985434  0.3534367980584278
  0.3296858689060371  0.4298210032590238  0.3539956683118841
  0.4521863175609624  0.4297978403368313  0.3539094632368280
  0.5746053496087521  0.4298007840368861  0.3534995941114588
  0.6964933504085966  0.4301787577537196  0.3544936353354122
  0.0380777682693672  0.5712934697011931  0.6418092887892921
  0.1602449453252800  0.5701693550586276  0.6454787339851709
  0.2826553169830346  0.5701823028390315  0.6461975902497590
  0.4051704913443572  0.5702299272770913  0.6464313442936239
  0.5275882716905933  0.5701752715366252  0.6460863034529556
  0.6502351922490627  0.5702815439187690  0.6458956859287650
  0.7739605998798251  0.5714223884541294  0.6452804780832376
  0.0090885668071537  0.7500000176088264  0.6185022821643761
  0.1327185676295326  0.7500000176088264  0.5911953662564993
  0.2551402834368530  0.7500000176088264  0.5913023195843461
  0.3776326806297710  0.7500000176088264  0.5918414033104586
  0.5000542928369132  0.7500000176088264  0.5916418128961889
  0.6226601555485407  0.7500000176088264  0.5916557120933781
  0.7458797217876728  0.7500000176088264  0.5826854307656597
  0.1121049755208620  0.2500000000663931  0.4081367389903847
  0.2347939398517081  0.2500000000663931  0.4081823252151032
  0.3572385689480386  0.2500000000663931  0.4083453849009986
  0.4797242743862643  0.2500000000663931  0.4085107643820340
  0.6021365107192546  0.2500000000663931  0.4081126941614506
  0.7238191246793002  0.2500000000663931  0.4091524335968817
  0.0502093730847341  0.2500000000663931  0.0826853691261835
  0.1734289490572078  0.2500000000663931  0.0916556504539020
  0.2960348117688425  0.2500000000663931  0.0916417512567129
  0.4184564239759773  0.2500000000663931  0.0918413416709827
  0.5409488470927769  0.2500000000663931  0.0913022579448700
  0.6633705629136899  0.2500000000663931  0.0911953046170239
  0.7870005483339960  0.2500000000663931  0.1185022205248999
  0.0722699928951818  0.7500000176088264  0.9091524747229036
  0.1939526068416348  0.7500000176088264  0.9081127352874726
  0.3163647783581564  0.7500000176088264  0.9085108055080555
  0.4388505356577168  0.7500000176088264  0.9083454260270204
  0.5612951906779151  0.7500000176088264  0.9081823663411247
  0.6839841679774947  0.7500000176088264  0.9081367801164061
  0.0223810632822854  0.2500000000663931  0.9625766999786595
  0.1463911252817270  0.2500000000663931  0.9641695332602481
  0.2689880395914513  0.2500000000663931  0.9642451518115659
  0.3913925809437877  0.2500000000663931  0.9645417884567131
  0.5138777584623949  0.2500000000663931  0.9643253370864017
  0.6363346090443528  0.2500000000663931  0.9635948212221047
  0.7644092345949532  0.2500000000663931  0.9617683673155261
  0.0986400281511101  0.7500000176088264  0.0371577805968008
  0.2209905984868790  0.7500000176088264  0.0354370116450585
  0.3434116025586909  0.7500000176088264  0.0357802636272891
  0.4658902217059052  0.7500000176088264  0.0358500569552073
  0.5883717473116264  0.7500000176088264  0.0353733977476839
  0.7109702322353191  0.7500000176088264  0.0353563333489196
  0.0316798538066834  0.7500000176088264  0.4617682851626037
  0.1597544826062619  0.7500000176088264  0.4635947390691821
  0.2822113980046952  0.7500000176088264  0.4643252549334791
  0.4046965495994279  0.7500000176088264  0.4645417063037904
  0.5271010909381715  0.7500000176088264  0.4642450696586432
  0.6496980052614887  0.7500000176088264  0.4641694511073255
  0.7737080089152319  0.7500000176088264  0.4625766178257365
  0.0851188918099334  0.2500000000663931  0.5353563179336664
  0.2077173832179965  0.2500000000663931  0.5353733823324307
  0.3301988569623829  0.2500000000663931  0.5358500415399541
  0.4526775020470575  0.2500000000663931  0.5357802482120362
  0.5750985320427515  0.2500000000663931  0.5354369962298053
  0.6974491088764758  0.2500000000663931  0.5371577651815476
 
  0.00000000E+00  0.00000000E+00  0.00000000E+00
  0.00000000E+00  0.00000000E+00  0.00000000E+00
  0.00000000E+00  0.00000000E+00  0.00000000E+00
  0.00000000E+00  0.00000000E+00  0.00000000E+00
  0.00000000E+00  0.00000000E+00  0.00000000E+00
  0.00000000E+00  0.00000000E+00  0.00000000E+00
  0.00000000E+00  0.00000000E+00  0.00000000E+00
  0.00000000E+00  0.00000000E+00  0.00000000E+00
  0.00000000E+00  0.00000000E+00  0.00000000E+00
  0.00000000E+00  0.00000000E+00  0.00000000E+00
  0.00000000E+00  0.00000000E+00  0.00000000E+00
  0.00000000E+00  0.00000000E+00  0.00000000E+00
  0.00000000E+00  0.00000000E+00  0.00000000E+00
  0.00000000E+00  0.00000000E+00  0.00000000E+00
  0.00000000E+00  0.00000000E+00  0.00000000E+00
  0.00000000E+00  0.00000000E+00  0.00000000E+00
  0.00000000E+00  0.00000000E+00  0.00000000E+00
  0.00000000E+00  0.00000000E+00  0.00000000E+00
  0.00000000E+00  0.00000000E+00  0.00000000E+00
  0.00000000E+00  0.00000000E+00  0.00000000E+00
  0.00000000E+00  0.00000000E+00  0.00000000E+00
  0.00000000E+00  0.00000000E+00  0.00000000E+00
  0.00000000E+00  0.00000000E+00  0.00000000E+00
  0.00000000E+00  0.00000000E+00  0.00000000E+00
  0.00000000E+00  0.00000000E+00  0.00000000E+00
  0.00000000E+00  0.00000000E+00  0.00000000E+00
  0.00000000E+00  0.00000000E+00  0.00000000E+00
  0.00000000E+00  0.00000000E+00  0.00000000E+00
  0.00000000E+00  0.00000000E+00  0.00000000E+00
  0.00000000E+00  0.00000000E+00  0.00000000E+00
  0.00000000E+00  0.00000000E+00  0.00000000E+00
  0.00000000E+00  0.00000000E+00  0.00000000E+00
  0.00000000E+00  0.00000000E+00  0.00000000E+00
  0.00000000E+00  0.00000000E+00  0.00000000E+00
  0.00000000E+00  0.00000000E+00  0.00000000E+00
  0.00000000E+00  0.00000000E+00  0.00000000E+00
  0.00000000E+00  0.00000000E+00  0.00000000E+00
  0.00000000E+00  0.00000000E+00  0.00000000E+00
  0.00000000E+00  0.00000000E+00  0.00000000E+00
  0.00000000E+00  0.00000000E+00  0.00000000E+00
  0.00000000E+00  0.00000000E+00  0.00000000E+00
  0.00000000E+00  0.00000000E+00  0.00000000E+00
  0.00000000E+00  0.00000000E+00  0.00000000E+00
  0.00000000E+00  0.00000000E+00  0.00000000E+00
  0.00000000E+00  0.00000000E+00  0.00000000E+00
  0.00000000E+00  0.00000000E+00  0.00000000E+00
  0.00000000E+00  0.00000000E+00  0.00000000E+00
  0.00000000E+00  0.00000000E+00  0.00000000E+00
  0.00000000E+00  0.00000000E+00  0.00000000E+00
  0.00000000E+00  0.00000000E+00  0.00000000E+00
  0.00000000E+00  0.00000000E+00  0.00000000E+00
  0.00000000E+00  0.00000000E+00  0.00000000E+00
  0.00000000E+00  0.00000000E+00  0.00000000E+00
  0.00000000E+00  0.00000000E+00  0.00000000E+00
  0.00000000E+00  0.00000000E+00  0.00000000E+00
  0.00000000E+00  0.00000000E+00  0.00000000E+00
  0.00000000E+00  0.00000000E+00  0.00000000E+00
  0.00000000E+00  0.00000000E+00  0.00000000E+00
  0.00000000E+00  0.00000000E+00  0.00000000E+00
  0.00000000E+00  0.00000000E+00  0.00000000E+00
  0.00000000E+00  0.00000000E+00  0.00000000E+00
  0.00000000E+00  0.00000000E+00  0.00000000E+00
  0.00000000E+00  0.00000000E+00  0.00000000E+00
  0.00000000E+00  0.00000000E+00  0.00000000E+00
  0.00000000E+00  0.00000000E+00  0.00000000E+00
  0.00000000E+00  0.00000000E+00  0.00000000E+00
  0.00000000E+00  0.00000000E+00  0.00000000E+00
  0.00000000E+00  0.00000000E+00  0.00000000E+00
  0.00000000E+00  0.00000000E+00  0.00000000E+00
  0.00000000E+00  0.00000000E+00  0.00000000E+00
  0.00000000E+00  0.00000000E+00  0.00000000E+00
  0.00000000E+00  0.00000000E+00  0.00000000E+00
  0.00000000E+00  0.00000000E+00  0.00000000E+00
  0.00000000E+00  0.00000000E+00  0.00000000E+00
  0.00000000E+00  0.00000000E+00  0.00000000E+00
  0.00000000E+00  0.00000000E+00  0.00000000E+00
  0.00000000E+00  0.00000000E+00  0.00000000E+00
  0.00000000E+00  0.00000000E+00  0.00000000E+00
  0.00000000E+00  0.00000000E+00  0.00000000E+00
  0.00000000E+00  0.00000000E+00  0.00000000E+00
  0.00000000E+00  0.00000000E+00  0.00000000E+00
  0.00000000E+00  0.00000000E+00  0.00000000E+00
  0.00000000E+00  0.00000000E+00  0.00000000E+00
  0.00000000E+00  0.00000000E+00  0.00000000E+00
  0.00000000E+00  0.00000000E+00  0.00000000E+00
  0.00000000E+00  0.00000000E+00  0.00000000E+00
  0.00000000E+00  0.00000000E+00  0.00000000E+00
  0.00000000E+00  0.00000000E+00  0.00000000E+00
  0.00000000E+00  0.00000000E+00  0.00000000E+00
  0.00000000E+00  0.00000000E+00  0.00000000E+00
  0.00000000E+00  0.00000000E+00  0.00000000E+00
  0.00000000E+00  0.00000000E+00  0.00000000E+00
  0.00000000E+00  0.00000000E+00  0.00000000E+00
  0.00000000E+00  0.00000000E+00  0.00000000E+00
  0.00000000E+00  0.00000000E+00  0.00000000E+00
  0.00000000E+00  0.00000000E+00  0.00000000E+00
  0.00000000E+00  0.00000000E+00  0.00000000E+00
  0.00000000E+00  0.00000000E+00  0.00000000E+00
  0.00000000E+00  0.00000000E+00  0.00000000E+00
  0.00000000E+00  0.00000000E+00  0.00000000E+00
  0.00000000E+00  0.00000000E+00  0.00000000E+00
  0.00000000E+00  0.00000000E+00  0.00000000E+00
  0.00000000E+00  0.00000000E+00  0.00000000E+00
  0.00000000E+00  0.00000000E+00  0.00000000E+00
  0.00000000E+00  0.00000000E+00  0.00000000E+00
  0.00000000E+00  0.00000000E+00  0.00000000E+00
  0.00000000E+00  0.00000000E+00  0.00000000E+00
  0.00000000E+00  0.00000000E+00  0.00000000E+00
  0.00000000E+00  0.00000000E+00  0.00000000E+00
  0.00000000E+00  0.00000000E+00  0.00000000E+00
  0.00000000E+00  0.00000000E+00  0.00000000E+00
  0.00000000E+00  0.00000000E+00  0.00000000E+00
  0.00000000E+00  0.00000000E+00  0.00000000E+00
  0.00000000E+00  0.00000000E+00  0.00000000E+00
  0.00000000E+00  0.00000000E+00  0.00000000E+00
  0.00000000E+00  0.00000000E+00  0.00000000E+00
  0.00000000E+00  0.00000000E+00  0.00000000E+00
  0.00000000E+00  0.00000000E+00  0.00000000E+00
  0.00000000E+00  0.00000000E+00  0.00000000E+00
  0.00000000E+00  0.00000000E+00  0.00000000E+00
  0.00000000E+00  0.00000000E+00  0.00000000E+00
  0.00000000E+00  0.00000000E+00  0.00000000E+00
  0.00000000E+00  0.00000000E+00  0.00000000E+00
  0.00000000E+00  0.00000000E+00  0.00000000E+00
  0.00000000E+00  0.00000000E+00  0.00000000E+00
  0.00000000E+00  0.00000000E+00  0.00000000E+00
  0.00000000E+00  0.00000000E+00  0.00000000E+00
  0.00000000E+00  0.00000000E+00  0.00000000E+00
  0.00000000E+00  0.00000000E+00  0.00000000E+00
  0.00000000E+00  0.00000000E+00  0.00000000E+00
  0.00000000E+00  0.00000000E+00  0.00000000E+00
  0.00000000E+00  0.00000000E+00  0.00000000E+00
  0.00000000E+00  0.00000000E+00  0.00000000E+00
  0.00000000E+00  0.00000000E+00  0.00000000E+00
  0.00000000E+00  0.00000000E+00  0.00000000E+00
  0.00000000E+00  0.00000000E+00  0.00000000E+00
  0.00000000E+00  0.00000000E+00  0.00000000E+00
  0.00000000E+00  0.00000000E+00  0.00000000E+00
  0.00000000E+00  0.00000000E+00  0.00000000E+00
  0.00000000E+00  0.00000000E+00  0.00000000E+00
  0.00000000E+00  0.00000000E+00  0.00000000E+00
  0.00000000E+00  0.00000000E+00  0.00000000E+00
  0.00000000E+00  0.00000000E+00  0.00000000E+00
  0.00000000E+00  0.00000000E+00  0.00000000E+00
  0.00000000E+00  0.00000000E+00  0.00000000E+00
  0.00000000E+00  0.00000000E+00  0.00000000E+00
  0.00000000E+00  0.00000000E+00  0.00000000E+00
  0.00000000E+00  0.00000000E+00  0.00000000E+00
  0.00000000E+00  0.00000000E+00  0.00000000E+00
  0.00000000E+00  0.00000000E+00  0.00000000E+00
  0.00000000E+00  0.00000000E+00  0.00000000E+00
  0.00000000E+00  0.00000000E+00  0.00000000E+00
  0.00000000E+00  0.00000000E+00  0.00000000E+00
  0.00000000E+00  0.00000000E+00  0.00000000E+00
  0.00000000E+00  0.00000000E+00  0.00000000E+00
  0.00000000E+00  0.00000000E+00  0.00000000E+00
