sr8 si16                                
   1.00000000000000     
     8.4179692681995828    0.0000000000000000    0.0000000000000000
     0.0000000000000000    6.3066238337844105    0.0000000000000000
     0.0000000000000000    0.0000000000000000   10.8097454015350323
   Sr   Si
     8    16
Direct
  0.0149924938402168  0.2500000000663931  0.6920179853670241
  0.9850075094230145  0.7500000176088264  0.3079820146588326
  0.4850075094563107  0.7500000176088264  0.1920179236413596
  0.5149924904770903  0.2500000000663931  0.8079820557848543
  0.1576315845080277  0.7500000176088264  0.9065556866217996
  0.8423684155363741  0.2500000000663931  0.0934442928044141
  0.3423684154586762  0.2500000000663931  0.4065557688350546
  0.6576315844747246  0.7500000176088264  0.5934442723038920
  0.1915278002040638  0.0609481066102278  0.1499003040673340
  0.8084721998403310  0.9390518845078957  0.8500996754450757
  0.3084721997626331  0.9390518845078957  0.6499003245937128
  0.6915278001707676  0.0609481066102277  0.3500996754321439
  0.8084721998403310  0.5609481154478375  0.8500996754450757
  0.1915278002040638  0.4390518845226536  0.1499003040673340
  0.6915278001707676  0.4390518845226536  0.3500996754321439
  0.3084721997626331  0.5609481154478375  0.6499003245937128
  0.0731916623809362  0.7500000176088264  0.5914700739422064
  0.9268083177954757  0.2500000000663931  0.4085299259974612
  0.4268083442454291  0.2500000000663931  0.0914700123027308
  0.5731916822156230  0.7500000176088264  0.9085299671234831
  0.1954799205318069  0.2500000000663931  0.9590103924667033
  0.8045200663042662  0.7500000176088264  0.0409896229011424
  0.3045200662265684  0.7500000176088264  0.4590103103137806
  0.6954799337068325  0.2500000000663931  0.5409896074858893
 
  0.00000000E+00  0.00000000E+00  0.00000000E+00
  0.00000000E+00  0.00000000E+00  0.00000000E+00
  0.00000000E+00  0.00000000E+00  0.00000000E+00
  0.00000000E+00  0.00000000E+00  0.00000000E+00
  0.00000000E+00  0.00000000E+00  0.00000000E+00
  0.00000000E+00  0.00000000E+00  0.00000000E+00
  0.00000000E+00  0.00000000E+00  0.00000000E+00
  0.00000000E+00  0.00000000E+00  0.00000000E+00
  0.00000000E+00  0.00000000E+00  0.00000000E+00
  0.00000000E+00  0.00000000E+00  0.00000000E+00
  0.00000000E+00  0.00000000E+00  0.00000000E+00
  0.00000000E+00  0.00000000E+00  0.00000000E+00
  0.00000000E+00  0.00000000E+00  0.00000000E+00
  0.00000000E+00  0.00000000E+00  0.00000000E+00
  0.00000000E+00  0.00000000E+00  0.00000000E+00
  0.00000000E+00  0.00000000E+00  0.00000000E+00
  0.00000000E+00  0.00000000E+00  0.00000000E+00
  0.00000000E+00  0.00000000E+00  0.00000000E+00
  0.00000000E+00  0.00000000E+00  0.00000000E+00
  0.00000000E+00  0.00000000E+00  0.00000000E+00
  0.00000000E+00  0.00000000E+00  0.00000000E+00
  0.00000000E+00  0.00000000E+00  0.00000000E+00
  0.00000000E+00  0.00000000E+00  0.00000000E+00
  0.00000000E+00  0.00000000E+00  0.00000000E+00
