sr8 si16                                
   1.00000000000000     
     8.5735339196743929   -0.0000000000000000    0.0000000000000000
    -0.0000000000000000    6.4636857099210525    0.0000000000000000
     0.0000000000000000    0.0000000000000000   11.0464043616550267
   Sr   Si
     8    16
Direct
  0.0162830790667226  0.2500000000663931  0.6940522720568817
  0.9837169241965088  0.7500000176088264  0.3059477279689750
  0.4837169242298049  0.7500000176088264  0.1940522103312171
  0.5162830757035960  0.2500000000663931  0.8059477690949967
  0.1582527415802071  0.7500000176088264  0.9069749040526744
  0.8417472584641947  0.2500000000663931  0.0930250753735393
  0.3417472583864968  0.2500000000663931  0.4069749862659294
  0.6582527415469039  0.7500000176088264  0.5930250548730172
  0.1945123641989817  0.0635815906861321  0.1472593924061328
  0.8054876358454131  0.9364184004319914  0.8527405871062770
  0.3054876357677151  0.9364184004319914  0.6472594129325115
  0.6945123641656856  0.0635815906861321  0.3527405870933450
  0.8054876358454131  0.5635815995237418  0.8527405871062770
  0.1945123641989817  0.4364184004467493  0.1472593924061328
  0.6945123641656856  0.4364184004467493  0.3527405870933450
  0.3054876357677151  0.5635815995237418  0.6472594129325115
  0.0727735757993751  0.7500000176088264  0.5910036111935354
  0.9272264043770369  0.2500000000663931  0.4089963887461323
  0.4272264308269901  0.2500000000663931  0.0910035495540598
  0.5727735956340618  0.7500000176088264  0.9089964298721541
  0.1962740427822573  0.2500000000663931  0.9590109951200232
  0.8037259440538159  0.7500000176088264  0.0409890202478225
  0.3037259439761180  0.7500000176088264  0.4590109129671006
  0.6962740559572828  0.2500000000663931  0.5409890048325694
 
  0.00000000E+00  0.00000000E+00  0.00000000E+00
  0.00000000E+00  0.00000000E+00  0.00000000E+00
  0.00000000E+00  0.00000000E+00  0.00000000E+00
  0.00000000E+00  0.00000000E+00  0.00000000E+00
  0.00000000E+00  0.00000000E+00  0.00000000E+00
  0.00000000E+00  0.00000000E+00  0.00000000E+00
  0.00000000E+00  0.00000000E+00  0.00000000E+00
  0.00000000E+00  0.00000000E+00  0.00000000E+00
  0.00000000E+00  0.00000000E+00  0.00000000E+00
  0.00000000E+00  0.00000000E+00  0.00000000E+00
  0.00000000E+00  0.00000000E+00  0.00000000E+00
  0.00000000E+00  0.00000000E+00  0.00000000E+00
  0.00000000E+00  0.00000000E+00  0.00000000E+00
  0.00000000E+00  0.00000000E+00  0.00000000E+00
  0.00000000E+00  0.00000000E+00  0.00000000E+00
  0.00000000E+00  0.00000000E+00  0.00000000E+00
  0.00000000E+00  0.00000000E+00  0.00000000E+00
  0.00000000E+00  0.00000000E+00  0.00000000E+00
  0.00000000E+00  0.00000000E+00  0.00000000E+00
  0.00000000E+00  0.00000000E+00  0.00000000E+00
  0.00000000E+00  0.00000000E+00  0.00000000E+00
  0.00000000E+00  0.00000000E+00  0.00000000E+00
  0.00000000E+00  0.00000000E+00  0.00000000E+00
  0.00000000E+00  0.00000000E+00  0.00000000E+00
