ba8 si16                                
   1.00000000000000     
     8.9260665140811231   -0.0000000000000000    0.0000000000000000
    -0.0000000000000000    6.7201943514092548    0.0000000000000000
     0.0000000000000000    0.0000000000000000   11.5031858028826566
   Ba   Si
     8    16
Direct
  0.0150598903371904  0.2500000000663931  0.6915435111237888
  0.9849401129260411  0.7500000176088264  0.3084564889020679
  0.4849401129593371  0.7500000176088264  0.1915434493981241
  0.5150598869740637  0.2500000000663931  0.8084565300280896
  0.1592031033120638  0.7500000176088264  0.9066341417230408
  0.8407968967323380  0.2500000000663931  0.0933658377031728
  0.3407968966546402  0.2500000000663931  0.4066342239362958
  0.6592031032787606  0.7500000176088264  0.5933658172026508
  0.1936433925869747  0.0706491002739331  0.1472349081819978
  0.8063566074574200  0.9293508908441903  0.8527650713304119
  0.3063566073797222  0.9293508908441903  0.6472349287083766
  0.6936433925536787  0.0706491002739331  0.3527650713174800
  0.8063566074574200  0.5706491091115429  0.8527650713304119
  0.1936433925869747  0.4293508908589483  0.1472349081819978
  0.6936433925536787  0.4293508908589483  0.3527650713174800
  0.3063566073797222  0.5706491091115429  0.6472349287083766
  0.0817142183791858  0.7500000176088264  0.5917920157134501
  0.9182857617972262  0.2500000000663931  0.4082079842262178
  0.4182857882471794  0.2500000000663931  0.0917919540739743
  0.5817142382138725  0.7500000176088264  0.9082080253522394
  0.1971453259959491  0.2500000000663931  0.9655719193060958
  0.8028546608401241  0.7500000176088264  0.0344280960617498
  0.3028546607624262  0.7500000176088264  0.4655718371531731
  0.6971453391709745  0.2500000000663931  0.5344280806464968
 
  0.00000000E+00  0.00000000E+00  0.00000000E+00
  0.00000000E+00  0.00000000E+00  0.00000000E+00
  0.00000000E+00  0.00000000E+00  0.00000000E+00
  0.00000000E+00  0.00000000E+00  0.00000000E+00
  0.00000000E+00  0.00000000E+00  0.00000000E+00
  0.00000000E+00  0.00000000E+00  0.00000000E+00
  0.00000000E+00  0.00000000E+00  0.00000000E+00
  0.00000000E+00  0.00000000E+00  0.00000000E+00
  0.00000000E+00  0.00000000E+00  0.00000000E+00
  0.00000000E+00  0.00000000E+00  0.00000000E+00
  0.00000000E+00  0.00000000E+00  0.00000000E+00
  0.00000000E+00  0.00000000E+00  0.00000000E+00
  0.00000000E+00  0.00000000E+00  0.00000000E+00
  0.00000000E+00  0.00000000E+00  0.00000000E+00
  0.00000000E+00  0.00000000E+00  0.00000000E+00
  0.00000000E+00  0.00000000E+00  0.00000000E+00
  0.00000000E+00  0.00000000E+00  0.00000000E+00
  0.00000000E+00  0.00000000E+00  0.00000000E+00
  0.00000000E+00  0.00000000E+00  0.00000000E+00
  0.00000000E+00  0.00000000E+00  0.00000000E+00
  0.00000000E+00  0.00000000E+00  0.00000000E+00
  0.00000000E+00  0.00000000E+00  0.00000000E+00
  0.00000000E+00  0.00000000E+00  0.00000000E+00
  0.00000000E+00  0.00000000E+00  0.00000000E+00
