ba8 si16                                
   1.00000000000000     
    81.8540024189037752    0.0000000000000000    0.0000000000000000
     0.0000000000000000    6.7010160047000147    0.0000000000000000
     0.0000000000000000    0.0000000000000000   11.4742624426788833
   Ba   Si
    60   120
Direct
  0.0039991043049017  0.2500000000663931  0.7014065473554759
  0.1110220286811974  0.2500000000663931  0.6905100284522940
  0.2200140020857487  0.2500000000663931  0.6915301758102993
  0.3290387339997014  0.2500000000663931  0.6914043145814550
  0.4382119490795494  0.2500000000663931  0.6913778129171443
  0.5472739635165752  0.2500000000663931  0.6915421622762253
  0.6563789327558524  0.2500000000663931  0.6911357344606395
  0.7667221423458772  0.2500000000663931  0.6931106897377221
  0.1073775113089838  0.7500000176088264  0.3081437239662699
  0.2165590795310348  0.7500000176088264  0.3084928723987089
  0.3255800056618048  0.7500000176088264  0.3085201543304620
  0.4347186558220475  0.7500000176088264  0.3085242256619827
  0.5438173985047184  0.7500000176088264  0.3085772201648199
  0.6528823378664841  0.7500000176088264  0.3085390516505281
  0.7617240560495010  0.7500000176088264  0.3083217403666623
  0.0516160268675985  0.7500000176088264  0.1931106280120578
  0.1619592364576234  0.7500000176088264  0.1911356727349751
  0.2710642172505958  0.7500000176088264  0.1915421005505607
  0.3801262316876214  0.7500000176088264  0.1913777511914800
  0.4892994467553546  0.7500000176088264  0.1914042528557904
  0.5983241786814151  0.7500000176088264  0.1915301140846348
  0.7073161636275535  0.7500000176088264  0.1905099667266296
  0.8143390883671708  0.7500000176088264  0.2014064856298112
  0.0566141362592499  0.2500000000663931  0.8083217814926836
  0.1654558544422670  0.2500000000663931  0.8085390927765502
  0.2745207822624529  0.2500000000663931  0.8085772612908414
  0.3836195249451162  0.2500000000663931  0.8085242667880044
  0.4927581750932513  0.2500000000663931  0.8085201954564838
  0.6017791012361356  0.2500000000663931  0.8084929135247315
  0.7109606579044926  0.2500000000663931  0.8081437650922916
  0.0233672939279869  0.7500000176088264  0.9121203851187693
  0.1269532425822371  0.7500000176088264  0.9057039808337116
  0.2358374307440609  0.7500000176088264  0.9061574617466213
  0.3448374313336829  0.7500000176088264  0.9058657228996071
  0.4540249284050203  0.7500000176088264  0.9058201500223337
  0.5630928030149541  0.7500000176088264  0.9061766882969202
  0.6720767636235108  0.7500000176088264  0.9048013177801055
  0.7806524298212950  0.7500000176088264  0.8958789565978456
  0.0911666514335375  0.2500000000663931  0.0933598235632048
  0.2007171228343160  0.2500000000663931  0.0939508089295533
  0.3097265445891770  0.2500000000663931  0.0939334562031110
  0.4189094321160589  0.2500000000663931  0.0942808682647413
  0.5280051453301551  0.2500000000663931  0.0939557840865996
  0.6370276547676815  0.2500000000663931  0.0937106747986653
  0.7459873506114474  0.2500000000663931  0.0955689365051989
  0.0376857278384933  0.2500000000663931  0.3958790388111003
  0.1462613940362772  0.2500000000663931  0.4048013999933602
  0.2552453546569485  0.2500000000663931  0.4061767705101754
  0.3643132292547678  0.2500000000663931  0.4058202322355886
  0.4735007725287629  0.2500000000663931  0.4058658051128624
  0.5825007731183777  0.2500000000663931  0.4061575439598756
  0.6913849612802012  0.2500000000663931  0.4057040630469663
  0.7949708637318016  0.2500000000663931  0.4121204673320242
  0.0723508532509916  0.7500000176088264  0.5955689160046770
  0.1813105490947645  0.7500000176088264  0.5937106542981434
  0.2903330585201759  0.7500000176088264  0.5939557635860774
  0.3994287486511119  0.7500000176088264  0.5942808477642189
  0.5086116130706109  0.7500000176088264  0.5939334357025891
  0.6176210348254719  0.7500000176088264  0.5939507884290310
  0.7271715062383656  0.7500000176088264  0.5933598030626825
  0.0199265188512227  0.0715230831962261  0.1450756065978384
  0.1299799453905903  0.0702282616049162  0.1456388443905345
  0.2392353897190625  0.0703118887424241  0.1463749780267843
  0.3482299484744611  0.0702749155948939  0.1460142307889833
  0.4574471765875215  0.0701823002269353  0.1461296903236140
  0.5664993650801802  0.0702952862620859  0.1464718873130311
  0.6754824985738174  0.0701683483700895  0.1450398771062922
  0.7844643087932154  0.0713570048919061  0.1423248353498465
  0.0887471948711711  0.9301194026369035  0.8544695682187270
  0.1973447210199089  0.9297326074715252  0.8536850426672203
  0.3063142888626855  0.9297178886112598  0.8535738015053116
  0.4155115008232229  0.9298240120600298  0.8540852098550156
  0.5246013641792506  0.9297094378433139  0.8537470845330838
  0.6335825246273051  0.9297534530651170  0.8534906835280002
  0.7429267326625663  0.9304314370504836  0.8535229706963414
  0.0338738430897250  0.9286429862262174  0.6423248558762251
  0.1428556937349337  0.9298316427480339  0.6450398976326709
  0.2518388156869906  0.9297047048560376  0.6464719078394102
  0.3608910041796493  0.9298176908911883  0.6461297108499932
  0.4701082091853270  0.9297250755232297  0.6460142513153623
  0.5791027679407257  0.9296881023756995  0.6463749985531634
  0.6883582238107782  0.9297717295132070  0.6456388649169132
  0.7984116445854057  0.9284769079218976  0.6450756271242175
  0.0754114307740690  0.0695685540676396  0.3535229706834094
  0.1847556445861708  0.0702465380530065  0.3534906835150681
  0.2937368165879203  0.0702905532748094  0.3537470845201517
  0.4028266799439479  0.0701759790580935  0.3540852098420837
  0.5120238918923703  0.0702821025068638  0.3535738014923794
  0.6209934828425373  0.0702673836465987  0.3536850426542888
  0.7295910032144275  0.0698805884812201  0.3544695682057951
  0.0887471948711711  0.5698805973188297  0.8544695682187270
  0.1973447210199089  0.5702673924842080  0.8536850426672203
  0.3063142888626855  0.5702821113444734  0.8535738015053116
  0.4155115008232229  0.5701759878957033  0.8540852098550156
  0.5246013641792506  0.5702905621124192  0.8537470845330838
  0.6335825246273051  0.5702465468906162  0.8534906835280001
  0.7429267326625663  0.5695685629052496  0.8535229706963414
  0.0199265188512227  0.4284769079366552  0.1450756065978384
  0.1299799453905903  0.4297717295279653  0.1456388443905345
  0.2392353897190625  0.4296881023904572  0.1463749780267843
  0.3482299484744611  0.4297250755379877  0.1460142307889833
  0.4574471765875215  0.4298176909059461  0.1461296903236140
  0.5664993650801802  0.4297047048707957  0.1464718873130311
  0.6754824985738174  0.4298316427627918  0.1450398771062922
  0.7844643087932154  0.4286429862409754  0.1423248353498465
  0.0754114307740690  0.4304314370652416  0.3535229706834094
  0.1847556445861708  0.4297534530798751  0.3534906835150681
  0.2937368165879203  0.4297094378580721  0.3537470845201517
  0.4028266799439479  0.4298240120747880  0.3540852098420837
  0.5120238918923703  0.4297178886260174  0.3535738014923794
  0.6209934828425373  0.4297326074862826  0.3536850426542888
  0.7295910032144275  0.4301194026516613  0.3544695682057951
  0.0338738430897250  0.5713570137295158  0.6423248558762251
  0.1428556937349337  0.5701683572076993  0.6450398976326709
  0.2518388156869906  0.5702952950996956  0.6464719078394102
  0.3608910041796493  0.5701823090645449  0.6461297108499932
  0.4701082091853270  0.5702749244325035  0.6460142513153623
  0.5791027679407257  0.5703118975800336  0.6463749985531634
  0.6883582238107782  0.5702282704425262  0.6456388649169132
  0.7984116445854057  0.5715230920338356  0.6450756271242175
  0.0080515335242403  0.7500000176088264  0.6181669526480115
  0.1183061013399220  0.7500000176088264  0.5910225112356015
  0.2273140287138116  0.7500000176088264  0.5914744453307004
  0.3363623166974538  0.7500000176088264  0.5915492820793469
  0.4455687507728435  0.7500000176088264  0.5913103759191066
  0.5545702679058103  0.7500000176088264  0.5915814757510737
  0.6637771110177549  0.7500000176088264  0.5916130367449526
  0.7733968681976078  0.7500000176088264  0.5826331198198896
  0.0998611915724229  0.2500000000663931  0.4083252166240086
  0.2092829163606535  0.2500000000663931  0.4083459410193943
  0.3182713371670021  0.2500000000663931  0.4084147986079536
  0.4273760672553751  0.2500000000663931  0.4083832457188394
  0.5365519362702880  0.2500000000663931  0.4084410693242628
  0.6455262765349347  0.2500000000663931  0.4083910538144750
  0.7539527044961506  0.2500000000663931  0.4092005821748845
  0.0449413038982412  0.2500000000663931  0.0826330581804140
  0.1545610581957208  0.2500000000663931  0.0916129751054768
  0.2637678897539706  0.2500000000663931  0.0915814141115978
  0.3727694068869446  0.2500000000663931  0.0913103142796312
  0.4819758871649920  0.2500000000663931  0.0915492204398715
  0.5910241751486347  0.2500000000663931  0.0914743836912250
  0.7000320909688288  0.2500000000663931  0.0910224495961258
  0.8102866566287878  0.2500000000663931  0.1181668910085361
  0.0643854878247082  0.7500000176088264  0.9092006233009060
  0.1728119157738161  0.7500000176088264  0.9083910949404970
  0.2817862675921578  0.7500000176088264  0.9084411104502845
  0.3909621135117957  0.7500000176088264  0.9083832868448611
  0.5000668204927788  0.7500000176088264  0.9084148397339750
  0.6090552412991348  0.7500000176088264  0.9083459821454160
  0.7184769776410530  0.7500000176088264  0.9083252577500308
  0.0201452428489576  0.2500000000663931  0.9625502813389547
  0.1304998419625626  0.2500000000663931  0.9639725971610135
  0.2396357744203210  0.2500000000663931  0.9645633203186338
  0.3486679694042202  0.2500000000663931  0.9641826719148323
  0.4578690755921713  0.2500000000663931  0.9643889048669804
  0.5668785697878053  0.2500000000663931  0.9646291002873457
  0.6759773535796846  0.2500000000663931  0.9632740843751815
  0.7900149072525730  0.2500000000663931  0.9621911897413133
  0.0878876667525327  0.7500000176088264  0.0370172007371314
  0.1969209162764761  0.7500000176088264  0.0355261116506633
  0.3059375067268012  0.7500000176088264  0.0353262777950069
  0.4150303418927925  0.7500000176088264  0.0358189458364572
  0.5241952655631978  0.7500000176088264  0.0355459459390742
  0.6331990192435534  0.7500000176088264  0.0352830273539916
  0.7425079480986306  0.7500000176088264  0.0355558172913789
  0.0283232099814049  0.7500000176088264  0.4621911075883905
  0.1423608040801034  0.7500000176088264  0.4632740022222586
  0.2514595878840906  0.7500000176088264  0.4646290181344231
  0.3604690820676168  0.7500000176088264  0.4643888227140577
  0.4696702344582185  0.7500000176088264  0.4641825897619100
  0.5787024294421250  0.7500000176088264  0.4645632381657112
  0.6878383618998830  0.7500000176088264  0.4639725150080910
  0.7981929537954540  0.7500000176088264  0.4625501991860325
  0.0758302499869677  0.2500000000663931  0.5355558018761257
  0.1851391846188853  0.2500000000663931  0.5352830119387391
  0.2941429382871333  0.2500000000663931  0.5355459305238213
  0.4033078388743783  0.2500000000663931  0.5358189304212042
  0.5124006509329873  0.2500000000663931  0.5353262623797537
  0.6214172413833051  0.2500000000663931  0.5355260962354106
  0.7304504966962101  0.2500000000663931  0.5370171853218784
 
  0.00000000E+00  0.00000000E+00  0.00000000E+00
  0.00000000E+00  0.00000000E+00  0.00000000E+00
  0.00000000E+00  0.00000000E+00  0.00000000E+00
  0.00000000E+00  0.00000000E+00  0.00000000E+00
  0.00000000E+00  0.00000000E+00  0.00000000E+00
  0.00000000E+00  0.00000000E+00  0.00000000E+00
  0.00000000E+00  0.00000000E+00  0.00000000E+00
  0.00000000E+00  0.00000000E+00  0.00000000E+00
  0.00000000E+00  0.00000000E+00  0.00000000E+00
  0.00000000E+00  0.00000000E+00  0.00000000E+00
  0.00000000E+00  0.00000000E+00  0.00000000E+00
  0.00000000E+00  0.00000000E+00  0.00000000E+00
  0.00000000E+00  0.00000000E+00  0.00000000E+00
  0.00000000E+00  0.00000000E+00  0.00000000E+00
  0.00000000E+00  0.00000000E+00  0.00000000E+00
  0.00000000E+00  0.00000000E+00  0.00000000E+00
  0.00000000E+00  0.00000000E+00  0.00000000E+00
  0.00000000E+00  0.00000000E+00  0.00000000E+00
  0.00000000E+00  0.00000000E+00  0.00000000E+00
  0.00000000E+00  0.00000000E+00  0.00000000E+00
  0.00000000E+00  0.00000000E+00  0.00000000E+00
  0.00000000E+00  0.00000000E+00  0.00000000E+00
  0.00000000E+00  0.00000000E+00  0.00000000E+00
  0.00000000E+00  0.00000000E+00  0.00000000E+00
  0.00000000E+00  0.00000000E+00  0.00000000E+00
  0.00000000E+00  0.00000000E+00  0.00000000E+00
  0.00000000E+00  0.00000000E+00  0.00000000E+00
  0.00000000E+00  0.00000000E+00  0.00000000E+00
  0.00000000E+00  0.00000000E+00  0.00000000E+00
  0.00000000E+00  0.00000000E+00  0.00000000E+00
  0.00000000E+00  0.00000000E+00  0.00000000E+00
  0.00000000E+00  0.00000000E+00  0.00000000E+00
  0.00000000E+00  0.00000000E+00  0.00000000E+00
  0.00000000E+00  0.00000000E+00  0.00000000E+00
  0.00000000E+00  0.00000000E+00  0.00000000E+00
  0.00000000E+00  0.00000000E+00  0.00000000E+00
  0.00000000E+00  0.00000000E+00  0.00000000E+00
  0.00000000E+00  0.00000000E+00  0.00000000E+00
  0.00000000E+00  0.00000000E+00  0.00000000E+00
  0.00000000E+00  0.00000000E+00  0.00000000E+00
  0.00000000E+00  0.00000000E+00  0.00000000E+00
  0.00000000E+00  0.00000000E+00  0.00000000E+00
  0.00000000E+00  0.00000000E+00  0.00000000E+00
  0.00000000E+00  0.00000000E+00  0.00000000E+00
  0.00000000E+00  0.00000000E+00  0.00000000E+00
  0.00000000E+00  0.00000000E+00  0.00000000E+00
  0.00000000E+00  0.00000000E+00  0.00000000E+00
  0.00000000E+00  0.00000000E+00  0.00000000E+00
  0.00000000E+00  0.00000000E+00  0.00000000E+00
  0.00000000E+00  0.00000000E+00  0.00000000E+00
  0.00000000E+00  0.00000000E+00  0.00000000E+00
  0.00000000E+00  0.00000000E+00  0.00000000E+00
  0.00000000E+00  0.00000000E+00  0.00000000E+00
  0.00000000E+00  0.00000000E+00  0.00000000E+00
  0.00000000E+00  0.00000000E+00  0.00000000E+00
  0.00000000E+00  0.00000000E+00  0.00000000E+00
  0.00000000E+00  0.00000000E+00  0.00000000E+00
  0.00000000E+00  0.00000000E+00  0.00000000E+00
  0.00000000E+00  0.00000000E+00  0.00000000E+00
  0.00000000E+00  0.00000000E+00  0.00000000E+00
  0.00000000E+00  0.00000000E+00  0.00000000E+00
  0.00000000E+00  0.00000000E+00  0.00000000E+00
  0.00000000E+00  0.00000000E+00  0.00000000E+00
  0.00000000E+00  0.00000000E+00  0.00000000E+00
  0.00000000E+00  0.00000000E+00  0.00000000E+00
  0.00000000E+00  0.00000000E+00  0.00000000E+00
  0.00000000E+00  0.00000000E+00  0.00000000E+00
  0.00000000E+00  0.00000000E+00  0.00000000E+00
  0.00000000E+00  0.00000000E+00  0.00000000E+00
  0.00000000E+00  0.00000000E+00  0.00000000E+00
  0.00000000E+00  0.00000000E+00  0.00000000E+00
  0.00000000E+00  0.00000000E+00  0.00000000E+00
  0.00000000E+00  0.00000000E+00  0.00000000E+00
  0.00000000E+00  0.00000000E+00  0.00000000E+00
  0.00000000E+00  0.00000000E+00  0.00000000E+00
  0.00000000E+00  0.00000000E+00  0.00000000E+00
  0.00000000E+00  0.00000000E+00  0.00000000E+00
  0.00000000E+00  0.00000000E+00  0.00000000E+00
  0.00000000E+00  0.00000000E+00  0.00000000E+00
  0.00000000E+00  0.00000000E+00  0.00000000E+00
  0.00000000E+00  0.00000000E+00  0.00000000E+00
  0.00000000E+00  0.00000000E+00  0.00000000E+00
  0.00000000E+00  0.00000000E+00  0.00000000E+00
  0.00000000E+00  0.00000000E+00  0.00000000E+00
  0.00000000E+00  0.00000000E+00  0.00000000E+00
  0.00000000E+00  0.00000000E+00  0.00000000E+00
  0.00000000E+00  0.00000000E+00  0.00000000E+00
  0.00000000E+00  0.00000000E+00  0.00000000E+00
  0.00000000E+00  0.00000000E+00  0.00000000E+00
  0.00000000E+00  0.00000000E+00  0.00000000E+00
  0.00000000E+00  0.00000000E+00  0.00000000E+00
  0.00000000E+00  0.00000000E+00  0.00000000E+00
  0.00000000E+00  0.00000000E+00  0.00000000E+00
  0.00000000E+00  0.00000000E+00  0.00000000E+00
  0.00000000E+00  0.00000000E+00  0.00000000E+00
  0.00000000E+00  0.00000000E+00  0.00000000E+00
  0.00000000E+00  0.00000000E+00  0.00000000E+00
  0.00000000E+00  0.00000000E+00  0.00000000E+00
  0.00000000E+00  0.00000000E+00  0.00000000E+00
  0.00000000E+00  0.00000000E+00  0.00000000E+00
  0.00000000E+00  0.00000000E+00  0.00000000E+00
  0.00000000E+00  0.00000000E+00  0.00000000E+00
  0.00000000E+00  0.00000000E+00  0.00000000E+00
  0.00000000E+00  0.00000000E+00  0.00000000E+00
  0.00000000E+00  0.00000000E+00  0.00000000E+00
  0.00000000E+00  0.00000000E+00  0.00000000E+00
  0.00000000E+00  0.00000000E+00  0.00000000E+00
  0.00000000E+00  0.00000000E+00  0.00000000E+00
  0.00000000E+00  0.00000000E+00  0.00000000E+00
  0.00000000E+00  0.00000000E+00  0.00000000E+00
  0.00000000E+00  0.00000000E+00  0.00000000E+00
  0.00000000E+00  0.00000000E+00  0.00000000E+00
  0.00000000E+00  0.00000000E+00  0.00000000E+00
  0.00000000E+00  0.00000000E+00  0.00000000E+00
  0.00000000E+00  0.00000000E+00  0.00000000E+00
  0.00000000E+00  0.00000000E+00  0.00000000E+00
  0.00000000E+00  0.00000000E+00  0.00000000E+00
  0.00000000E+00  0.00000000E+00  0.00000000E+00
  0.00000000E+00  0.00000000E+00  0.00000000E+00
  0.00000000E+00  0.00000000E+00  0.00000000E+00
  0.00000000E+00  0.00000000E+00  0.00000000E+00
  0.00000000E+00  0.00000000E+00  0.00000000E+00
  0.00000000E+00  0.00000000E+00  0.00000000E+00
  0.00000000E+00  0.00000000E+00  0.00000000E+00
  0.00000000E+00  0.00000000E+00  0.00000000E+00
  0.00000000E+00  0.00000000E+00  0.00000000E+00
  0.00000000E+00  0.00000000E+00  0.00000000E+00
  0.00000000E+00  0.00000000E+00  0.00000000E+00
  0.00000000E+00  0.00000000E+00  0.00000000E+00
  0.00000000E+00  0.00000000E+00  0.00000000E+00
  0.00000000E+00  0.00000000E+00  0.00000000E+00
  0.00000000E+00  0.00000000E+00  0.00000000E+00
  0.00000000E+00  0.00000000E+00  0.00000000E+00
  0.00000000E+00  0.00000000E+00  0.00000000E+00
  0.00000000E+00  0.00000000E+00  0.00000000E+00
  0.00000000E+00  0.00000000E+00  0.00000000E+00
  0.00000000E+00  0.00000000E+00  0.00000000E+00
  0.00000000E+00  0.00000000E+00  0.00000000E+00
  0.00000000E+00  0.00000000E+00  0.00000000E+00
  0.00000000E+00  0.00000000E+00  0.00000000E+00
  0.00000000E+00  0.00000000E+00  0.00000000E+00
  0.00000000E+00  0.00000000E+00  0.00000000E+00
  0.00000000E+00  0.00000000E+00  0.00000000E+00
  0.00000000E+00  0.00000000E+00  0.00000000E+00
  0.00000000E+00  0.00000000E+00  0.00000000E+00
  0.00000000E+00  0.00000000E+00  0.00000000E+00
  0.00000000E+00  0.00000000E+00  0.00000000E+00
  0.00000000E+00  0.00000000E+00  0.00000000E+00
  0.00000000E+00  0.00000000E+00  0.00000000E+00
  0.00000000E+00  0.00000000E+00  0.00000000E+00
  0.00000000E+00  0.00000000E+00  0.00000000E+00
  0.00000000E+00  0.00000000E+00  0.00000000E+00
  0.00000000E+00  0.00000000E+00  0.00000000E+00
  0.00000000E+00  0.00000000E+00  0.00000000E+00
  0.00000000E+00  0.00000000E+00  0.00000000E+00
  0.00000000E+00  0.00000000E+00  0.00000000E+00
  0.00000000E+00  0.00000000E+00  0.00000000E+00
  0.00000000E+00  0.00000000E+00  0.00000000E+00
  0.00000000E+00  0.00000000E+00  0.00000000E+00
  0.00000000E+00  0.00000000E+00  0.00000000E+00
  0.00000000E+00  0.00000000E+00  0.00000000E+00
  0.00000000E+00  0.00000000E+00  0.00000000E+00
  0.00000000E+00  0.00000000E+00  0.00000000E+00
  0.00000000E+00  0.00000000E+00  0.00000000E+00
  0.00000000E+00  0.00000000E+00  0.00000000E+00
  0.00000000E+00  0.00000000E+00  0.00000000E+00
  0.00000000E+00  0.00000000E+00  0.00000000E+00
  0.00000000E+00  0.00000000E+00  0.00000000E+00
  0.00000000E+00  0.00000000E+00  0.00000000E+00
  0.00000000E+00  0.00000000E+00  0.00000000E+00
  0.00000000E+00  0.00000000E+00  0.00000000E+00
  0.00000000E+00  0.00000000E+00  0.00000000E+00
  0.00000000E+00  0.00000000E+00  0.00000000E+00
  0.00000000E+00  0.00000000E+00  0.00000000E+00
  0.00000000E+00  0.00000000E+00  0.00000000E+00
  0.00000000E+00  0.00000000E+00  0.00000000E+00
  0.00000000E+00  0.00000000E+00  0.00000000E+00
  0.00000000E+00  0.00000000E+00  0.00000000E+00
  0.00000000E+00  0.00000000E+00  0.00000000E+00
  0.00000000E+00  0.00000000E+00  0.00000000E+00
