ba8 si16                                
   1.00000000000000     
    22.6094680786000026    0.0000000000000000    0.0000000000000000
     0.0000000000000000    6.7778496741999996    0.0000000000000000
     0.0000000000000000    0.0000000000000000   11.6021432877000006
   Ba   Si
     8    16
Selective dynamics
Direct
  0.0056936146836932  0.2500000000663931  0.7060098757536492   F   T   T
  0.3695528538555379  0.7500000176088264  0.2939901242722075   F   T   T
  0.1819296202106742  0.7500000176088264  0.1872437194085010   F   T   T
  0.1933168470790463  0.2500000000663931  0.8127562600177130   F   T   T
  0.0597801408303269  0.7500000176088264  0.9196852651177511   F   T   T
  0.3154663265010456  0.2500000000663931  0.0803147143084629   F   T   T
  0.1278430928145298  0.2500000000663931  0.3988013618503842   F   T   T
  0.2474033744751907  0.7500000176088264  0.6011986792885623   F   T   T
  0.0728991332615152  0.0728618651478533  0.1466012602804082   F   T   T
  0.3023473340698573  0.9271381259702702  0.8533987192320015   F   T   T
  0.1147241003833415  0.9275892205026743  0.6583442037200642   F   T   T
  0.2605223669063790  0.0724107706154490  0.3416557963057927   F   T   T
  0.3023473340698573  0.5728618739854630  0.8533987192320015   F   T   T
  0.0728991332615152  0.4271381259850282  0.1466012602804082   F   T   T
  0.2605223669063790  0.4275892205174326  0.3416557963057927   F   T   T
  0.1147241003833415  0.5724107794530588  0.6583442037200642   F   T   T
  0.0311098080788312  0.7500000176088264  0.5996689656927275   F   T   T
  0.3441366517971503  0.2500000000663931  0.4003310342469402   F   T   T
  0.1565134280650469  0.2500000000663931  0.0865368006848380   F   T   T
  0.2187330491790789  0.7500000176088264  0.9134631787413757   F   T   T
  0.0741839757202953  0.2500000000663931  0.9651080263614996   F   T   T
  0.3010624866547005  0.7500000176088264  0.0348919890063461   F   T   T
  0.1134392529681918  0.7500000176088264  0.4765720728825530   F   T   T
  0.2618072143215286  0.2500000000663931  0.5234278449171171   F   T   T
