ba8 si16                                
   1.00000000000000     
     7.4548054684948717   -0.0000000000000000    0.0000000000000000
    -0.0000000000000000    6.7643945183940302    0.0000000000000000
     0.0000000000000000    0.0000000000000000   11.5881246512663445
   Ba   Si
     8    16
Direct
  0.0140354266512743  0.2500000000663931  0.6913840894746910
  0.9859645766119569  0.7500000176088264  0.3086159105511653
  0.4859645766452532  0.7500000176088264  0.1913840277490267
  0.5140354232881479  0.2500000000663931  0.8086159516771874
  0.1571694168128167  0.7500000176088264  0.9061557402215289
  0.8428305832315850  0.2500000000663931  0.0938442392046851
  0.3428305831538873  0.2500000000663931  0.4061558224347834
  0.6571694167795137  0.7500000176088264  0.5938442187041627
  0.1936303141183969  0.0720945395642757  0.1461800908330277
  0.8063696859259979  0.9279054515538476  0.8538198886793820
  0.3063696858482999  0.9279054515538476  0.6461801113594066
  0.6936303140851008  0.0720945395642757  0.3538198886664501
  0.8063696859259979  0.5720945484018856  0.8538198886793820
  0.1936303141183969  0.4279054515686057  0.1461800908330277
  0.6936303140851008  0.4279054515686057  0.3538198886664501
  0.3063696858482999  0.5720945484018856  0.6461801113594066
  0.0857376489717511  0.7500000176088264  0.5905822752084396
  0.9142623312046609  0.2500000000663931  0.4094177247312282
  0.4142623576546141  0.2500000000663931  0.0905822135689640
  0.5857376688064377  0.7500000176088264  0.9094177658572499
  0.1969055350111049  0.2500000000663931  0.9662236564942659
  0.8030944518249682  0.7500000176088264  0.0337763588735798
  0.3030944517472705  0.7500000176088264  0.4662235743413431
  0.6969055481861305  0.2500000000663931  0.5337763434583267
 
  0.00000000E+00  0.00000000E+00  0.00000000E+00
  0.00000000E+00  0.00000000E+00  0.00000000E+00
  0.00000000E+00  0.00000000E+00  0.00000000E+00
  0.00000000E+00  0.00000000E+00  0.00000000E+00
  0.00000000E+00  0.00000000E+00  0.00000000E+00
  0.00000000E+00  0.00000000E+00  0.00000000E+00
  0.00000000E+00  0.00000000E+00  0.00000000E+00
  0.00000000E+00  0.00000000E+00  0.00000000E+00
  0.00000000E+00  0.00000000E+00  0.00000000E+00
  0.00000000E+00  0.00000000E+00  0.00000000E+00
  0.00000000E+00  0.00000000E+00  0.00000000E+00
  0.00000000E+00  0.00000000E+00  0.00000000E+00
  0.00000000E+00  0.00000000E+00  0.00000000E+00
  0.00000000E+00  0.00000000E+00  0.00000000E+00
  0.00000000E+00  0.00000000E+00  0.00000000E+00
  0.00000000E+00  0.00000000E+00  0.00000000E+00
  0.00000000E+00  0.00000000E+00  0.00000000E+00
  0.00000000E+00  0.00000000E+00  0.00000000E+00
  0.00000000E+00  0.00000000E+00  0.00000000E+00
  0.00000000E+00  0.00000000E+00  0.00000000E+00
  0.00000000E+00  0.00000000E+00  0.00000000E+00
  0.00000000E+00  0.00000000E+00  0.00000000E+00
  0.00000000E+00  0.00000000E+00  0.00000000E+00
  0.00000000E+00  0.00000000E+00  0.00000000E+00
