ba8 si16                                
   1.00000000000000     
     8.9683621347284053    0.0000000000000000    0.0000000000000000
    -0.0000000000000000    6.7613155494694217    0.0000000000000000
     0.0000000000000000    0.0000000000000000   11.5771242627122408
   Ba   Si
     8    16
Direct
  0.0146931437740855  0.2500000000663931  0.6931447355156682
  0.9853068594891458  0.7500000176088264  0.3068552645101884
  0.4853068595224421  0.7500000176088264  0.1931446737900036
  0.5146931404109590  0.2500000000663931  0.8068553056362101
  0.1602637730815985  0.7500000176088264  0.9066458286641320
  0.8397362269628034  0.2500000000663931  0.0933541507620817
  0.3397362268851055  0.2500000000663931  0.4066459108773870
  0.6602637730482953  0.7500000176088264  0.5933541302615596
  0.1940784472146088  0.0713931007005767  0.1457656645140725
  0.8059215528297859  0.9286068904175467  0.8542343149983372
  0.3059215527520881  0.9286068904175467  0.6457656850404513
  0.6940784471813127  0.0713931007005767  0.3542343149854052
  0.8059215528297859  0.5713931095381865  0.8542343149983372
  0.1940784472146088  0.4286068904323049  0.1457656645140725
  0.6940784471813127  0.4286068904323049  0.3542343149854052
  0.3059215527520881  0.5713931095381865  0.6457656850404513
  0.0820461040746793  0.7500000176088264  0.5900134073794214
  0.9179538761017326  0.2500000000663931  0.4099865925602462
  0.4179539025516860  0.2500000000663931  0.0900133457399459
  0.5820461239093661  0.7500000176088264  0.9099866336862681
  0.1968922875880260  0.2500000000663931  0.9650246312350494
  0.8031076992480473  0.7500000176088264  0.0349753841327962
  0.3031076991703494  0.7500000176088264  0.4650245490821269
  0.6968923007630514  0.2500000000663931  0.5349753687175431
 
  0.00000000E+00  0.00000000E+00  0.00000000E+00
  0.00000000E+00  0.00000000E+00  0.00000000E+00
  0.00000000E+00  0.00000000E+00  0.00000000E+00
  0.00000000E+00  0.00000000E+00  0.00000000E+00
  0.00000000E+00  0.00000000E+00  0.00000000E+00
  0.00000000E+00  0.00000000E+00  0.00000000E+00
  0.00000000E+00  0.00000000E+00  0.00000000E+00
  0.00000000E+00  0.00000000E+00  0.00000000E+00
  0.00000000E+00  0.00000000E+00  0.00000000E+00
  0.00000000E+00  0.00000000E+00  0.00000000E+00
  0.00000000E+00  0.00000000E+00  0.00000000E+00
  0.00000000E+00  0.00000000E+00  0.00000000E+00
  0.00000000E+00  0.00000000E+00  0.00000000E+00
  0.00000000E+00  0.00000000E+00  0.00000000E+00
  0.00000000E+00  0.00000000E+00  0.00000000E+00
  0.00000000E+00  0.00000000E+00  0.00000000E+00
  0.00000000E+00  0.00000000E+00  0.00000000E+00
  0.00000000E+00  0.00000000E+00  0.00000000E+00
  0.00000000E+00  0.00000000E+00  0.00000000E+00
  0.00000000E+00  0.00000000E+00  0.00000000E+00
  0.00000000E+00  0.00000000E+00  0.00000000E+00
  0.00000000E+00  0.00000000E+00  0.00000000E+00
  0.00000000E+00  0.00000000E+00  0.00000000E+00
  0.00000000E+00  0.00000000E+00  0.00000000E+00
