C4
1.0
        2.4677240849         0.0000000000         0.0000000000
       -1.2338620424         2.1371117470         0.0000000000
        0.0000000000         0.0000000000         8.6850376129
    C
    4
Cartesian
     0.000000000         0.000000000         2.171259403 T T F
     0.000000000         0.000000000         6.71377821 T T F
     1.233862079         0.712370604         2.171259403 T T F
     0.000000000         1.424741207         6.71377821 T T F
