C                                       
   1.00000000000000     
     2.4661396032511256   -0.0000000000000000   -0.0000000000000000
    -1.2330698016255628    2.1357395457040118    0.0000000000000000
     0.0000000000000000   -0.0000000000000000    7.786290163
   C 
     4
Direct
 -0.0000000000000000  0.0000000000000000 -0.0000000000000000 T T F
     0.0000000000000000         0.0000000000000000         0.5000000000597353 T T F
  0.3333333432379320  0.6666666864758639  0.0000000000000000 T T F
     0.6666666270498567         0.3333333133830934         0.5000000000597353 T T F
