sr8 si16                                
   1.00000000000000     
     8.5687004990436861   -0.0000000000000000    0.0000000000000000
     0.0000000000000000    6.4215330290940855    0.0000000000000000
     0.0000000000000000    0.0000000000000000   11.0131349831389098
   Sr   Si
     8    16
Direct
  0.0151073774689084  0.2500000000663931  0.6922872825037183
  0.9848926257943229  0.7500000176088264  0.3077127175221385
  0.4848926258276191  0.7500000176088264  0.1922872207780536
  0.5151073741057819  0.2500000000663931  0.8077127586481601
  0.1581247831741184  0.7500000176088264  0.9067253024468058
  0.8418752168702833  0.2500000000663931  0.0932746769794080
  0.3418752167925855  0.2500000000663931  0.4067253846600606
  0.6581247831408154  0.7500000176088264  0.5932746564788858
  0.1921373508597815  0.0621958202772636  0.1492620391390939
  0.8078626491846131  0.9378041708408600  0.8507379403733157
  0.3078626491069154  0.9378041708408600  0.6492620596654728
  0.6921373508264855  0.0621958202772636  0.3507379403603839
  0.8078626491846131  0.5621958291148732  0.8507379403733157
  0.1921373508597815  0.4378041708556178  0.1492620391390939
  0.6921373508264855  0.4378041708556178  0.3507379403603839
  0.3078626491069154  0.5621958291148732  0.6492620596654728
  0.0736691078576931  0.7500000176088264  0.5912470045033469
  0.9263308723187188  0.2500000000663931  0.4087529954363209
  0.4263308987686721  0.2500000000663931  0.0912469428638712
  0.5736691276923799  0.7500000176088264  0.9087530365623426
  0.1957473452942933  0.2500000000663931  0.9597113237805078
  0.8042526415417799  0.7500000176088264  0.0402886915873379
  0.3042526414640819  0.7500000176088264  0.4597112416275851
  0.6957473584693188  0.2500000000663931  0.5402886761720848
 
  0.00000000E+00  0.00000000E+00  0.00000000E+00
  0.00000000E+00  0.00000000E+00  0.00000000E+00
  0.00000000E+00  0.00000000E+00  0.00000000E+00
  0.00000000E+00  0.00000000E+00  0.00000000E+00
  0.00000000E+00  0.00000000E+00  0.00000000E+00
  0.00000000E+00  0.00000000E+00  0.00000000E+00
  0.00000000E+00  0.00000000E+00  0.00000000E+00
  0.00000000E+00  0.00000000E+00  0.00000000E+00
  0.00000000E+00  0.00000000E+00  0.00000000E+00
  0.00000000E+00  0.00000000E+00  0.00000000E+00
  0.00000000E+00  0.00000000E+00  0.00000000E+00
  0.00000000E+00  0.00000000E+00  0.00000000E+00
  0.00000000E+00  0.00000000E+00  0.00000000E+00
  0.00000000E+00  0.00000000E+00  0.00000000E+00
  0.00000000E+00  0.00000000E+00  0.00000000E+00
  0.00000000E+00  0.00000000E+00  0.00000000E+00
  0.00000000E+00  0.00000000E+00  0.00000000E+00
  0.00000000E+00  0.00000000E+00  0.00000000E+00
  0.00000000E+00  0.00000000E+00  0.00000000E+00
  0.00000000E+00  0.00000000E+00  0.00000000E+00
  0.00000000E+00  0.00000000E+00  0.00000000E+00
  0.00000000E+00  0.00000000E+00  0.00000000E+00
  0.00000000E+00  0.00000000E+00  0.00000000E+00
  0.00000000E+00  0.00000000E+00  0.00000000E+00
