ba8 si16                                
1.0
       24.0094680786         0.0000000000         0.0000000000
        0.0000000000         6.7778496742         0.0000000000
        0.0000000000         0.0000000000        11.6021432877
   Ba   Si
    8   16
Selective Dynamics
Cartesian
     0.136700655         1.694462419         8.194448815 F T T
     9.572767373         5.083387256         3.407694127 F T T
     4.368033359         5.083387256         2.173612675 F T T
     5.341434669         1.694462419         9.428530439 F T T
     1.435289350         5.083387256        10.661006996 F T T
     8.274178409         1.694462419         0.941136378 F T T
     3.069444753         1.694462419         4.639876432 F T T
     6.640023275         5.083387256         6.962267547 F T T
     1.750269406         0.488033485         1.705693307 F T T
     7.959198622         6.289816037         9.896449635 F T T
     2.754464608         6.293247944         7.633343693 F T T
     6.95500342         0.484601832         3.968799249 F T T
     7.959198622         3.876958474         9.896449635 F T T
     1.750269406         2.900891402         1.705693307 F T T
     6.95500342         2.904322904         3.968799249 F T T
     2.754464608         3.873526568         7.633343693 F T T
     0.746929942         5.083387256         6.949498231 F T T
     8.962538041         1.694462419         4.652645403 F T T
     3.757804027         1.694462419         1.008465995 F T T
     5.951664001         5.083387256         10.593677120 F T T
     1.781117855         1.694462419        11.191792166 F T T
     7.928350352         5.083387256         0.410351164 F T T
     2.723616159         5.083387256         5.515585971 F T T
     6.98585169         1.694462419         6.086555934 F T T
