ba8 si16                                
   1.00000000000000     
    24.4094680785999998    0.0000000000000000    0.0000000000000000
     0.0000000000000000    6.7778496741999996    0.0000000000000000
     0.0000000000000000    0.0000000000000000   11.6021432877000006
   Ba   Si
     8    16
Selective dynamics
Direct
  0.0056936146836932  0.2500000000663931  0.7051177572424314   F   T   T
  0.3695528538555379  0.7500000176088264  0.2948822427834253   F   T   T
  0.1819296202106742  0.7500000176088264  0.1874554075479335   F   T   T
  0.1933168470790463  0.2500000000663931  0.8125445718782808   F   T   T
  0.0597801408303269  0.7500000176088264  0.9184648874476844   F   T   T
  0.3154663265010456  0.2500000000663931  0.0815350919785295   F   T   T
  0.1278430928145298  0.2500000000663931  0.3993453485510390   F   T   T
  0.2474033744751907  0.7500000176088264  0.6006546925879073   F   T   T
  0.0728991332615152  0.0719760861534949  0.1467327356805917   F   T   T
  0.3023473340698573  0.9280239049646286  0.8532672438318180   F   T   T
  0.1147241003833415  0.9284457513776362  0.6573764409405324   F   T   T
  0.2605223669063790  0.0715542397404874  0.3426235590853247   F   T   T
  0.3023473340698573  0.5719760949911046  0.8532672438318180   F   T   T
  0.0728991332615152  0.4280239049793864  0.1467327356805917   F   T   T
  0.2605223669063790  0.4284457513923940  0.3426235590853247   F   T   T
  0.1147241003833415  0.5715542485780970  0.6573764409405324   F   T   T
  0.0311098080788312  0.7500000176088264  0.5983167642600762   F   T   T
  0.3441366517971503  0.2500000000663931  0.4016832356795914   F   T   T
  0.1565134280650469  0.2500000000663931  0.0866380947205733   F   T   T
  0.2187330491790789  0.7500000176088264  0.9133618847056406   F   T   T
  0.0741839757202953  0.2500000000663931  0.9642586582342246   F   T   T
  0.3010624866547005  0.7500000176088264  0.0357413571336211   F   T   T
  0.1134392529681918  0.7500000176088264  0.4748754704345778   F   T   T
  0.2618072143215286  0.2500000000663931  0.5251244473650920   F   T   T
