ba8 si16                                
   1.00000000000000     
    59.5763894662809008    0.0000000000000000   -0.0109195094283109
     0.0000000000000000    6.6915801143569329    0.0000000000000000
    -0.0022572913388499    0.0000000000000000   11.4558472942057801
   Ba   Si
    40    80
Direct
  0.0054249501591421  0.2500000000663931  0.7003497958799129
  0.1526006551292665  0.2500000000663931  0.6902181386298061
  0.3024501279740155  0.2500000000663931  0.6911421640611032
  0.4525650686030668  0.2500000000663931  0.6912668101459789
  0.6025688969247858  0.2500000000663931  0.6918040343705075
  0.1476281833138637  0.7500000176088264  0.3081959656553494
  0.2976320275230482  0.7500000176088264  0.3087331898798777
  0.4477469681520996  0.7500000176088264  0.3088578359647534
  0.5975964568843137  0.7500000176088264  0.3097818613960508
  0.7447721623540425  0.7500000176088264  0.2996502041459437
  0.0708687428223913  0.7500000176088264  0.1921044475583316
  0.2225550351571388  0.7500000176088264  0.1911549161252580
  0.3726841393382686  0.7500000176088264  0.1910822476790357
  0.5227905989112479  0.7500000176088264  0.1912926307429290
  0.6724377346744318  0.7500000176088264  0.1917047259136035
  0.0777593773224940  0.2500000000663931  0.8082952535126102
  0.2274065448606017  0.2500000000663931  0.8087073486832845
  0.3775129567878465  0.2500000000663931  0.8089177317471777
  0.5276420927272524  0.2500000000663931  0.8088450633009556
  0.6793284009494651  0.2500000000663931  0.8078955318678821
  0.0320356513605053  0.7500000176088264  0.9116281101156194
  0.1745354724659813  0.7500000176088264  0.9058856675773096
  0.3241199241199110  0.7500000176088264  0.9056842061350732
  0.4742807527151132  0.7500000176088264  0.9059991493580535
  0.6248872248124696  0.7500000176088264  0.9073307259397395
  0.1253098316116363  0.2500000000663931  0.0926692534864742
  0.2759163434110019  0.2500000000663931  0.0940008300681601
  0.4260771720062041  0.2500000000663931  0.0943157732911409
  0.5756616554350651  0.2500000000663931  0.0941143118489041
  0.7181614765238857  0.2500000000663931  0.0883718693105943
  0.0518690269706188  0.2500000000663931  0.3952683162917752
  0.2009701472373651  0.2500000000663931  0.4050349200845242
  0.3509881849808580  0.2500000000663931  0.4057614499088777
  0.5009800618562631  0.2500000000663931  0.4062501888499025
  0.6507845137693767  0.2500000000663931  0.4051384882101663
  0.0994125505818070  0.7500000176088264  0.5948615529287802
  0.2492170342698518  0.7500000176088264  0.5937498522890440
  0.3992089111452570  0.7500000176088264  0.5942385912300687
  0.5492269806470259  0.7500000176088264  0.5949651210544225
  0.6983281009137725  0.7500000176088264  0.6047317248471710
  0.0271099998835597  0.0712957348102506  0.1452129438633024
  0.1786572579954372  0.0701854101130248  0.1459709053634660
  0.3287858467935878  0.0699894588206655  0.1460034674742689
  0.4789862171905001  0.0700602630592071  0.1463198575244165
  0.6282071472270989  0.0697774209598935  0.1463235945169591
  0.1219899727302073  0.9302225701582297  0.8536763849954506
  0.2712109106938910  0.9299397280589163  0.8536801219879929
  0.4214112493325273  0.9300105322974578  0.8539965120381409
  0.5715398222432126  0.9298145810050991  0.8540290741489434
  0.7230870704462447  0.9287042563078728  0.8547870356491072
  0.0465590696844478  0.9287578437788796  0.6415271706843128
  0.1963379870169596  0.9299294011979750  0.6456074064695840
  0.3462851054283618  0.9299738800097795  0.6462175340073305
  0.4963950861678448  0.9299505513866051  0.6464743238430449
  0.6464816301539507  0.9306061898097511  0.6475120171563764
  0.1037155056741735  0.0693938013083726  0.3524879828694805
  0.2538020576040047  0.0700494397315182  0.3535256761828117
  0.4039119906977532  0.0700261111083438  0.3537824660185261
  0.5538591408840869  0.0700705899201487  0.3543925935562727
  0.7036379867396582  0.0712421473392439  0.3584728293415441
  0.1219899727302073  0.5697774297975035  0.8536763849954506
  0.2712109106938910  0.5700602718968169  0.8536801219879929
  0.4214112493325273  0.5699894676582754  0.8539965120381409
  0.5715398222432126  0.5701854189506341  0.8540290741489434
  0.7230870704462447  0.5712957436478604  0.8547870356491072
  0.0271099998835597  0.4287042563226308  0.1452129438633024
  0.1786572579954372  0.4298145810198565  0.1459709053634660
  0.3287858467935878  0.4300105323122159  0.1460034674742689
  0.4789862171905001  0.4299397280736743  0.1463198575244165
  0.6282071472270989  0.4302225701729879  0.1463235945169591
  0.1037155056741735  0.4306061898245087  0.3524879828694805
  0.2538020576040047  0.4299505514013635  0.3535256761828117
  0.4039119906977532  0.4299738800245375  0.3537824660185261
  0.5538591408840869  0.4299294012127327  0.3543925935562727
  0.7036379867396582  0.4287578437936376  0.3584728293415441
  0.0465590696844478  0.5712421561768536  0.6415271706843128
  0.1963379870169596  0.5700705987577582  0.6456074064695840
  0.3462851054283618  0.5700261199459536  0.6462175340073305
  0.4963950861678448  0.5700494485691281  0.6464743238430449
  0.6464816301539507  0.5693938101459821  0.6475120171563764
  0.0110661294272641  0.7500000176088264  0.6175171992430938
  0.1625948773763877  0.7500000176088264  0.5917019410447382
  0.3125721474046111  0.7500000176088264  0.5916121611673568
  0.4626684854429148  0.7500000176088264  0.5920953428881753
  0.6129015484966991  0.7500000176088264  0.5924158833124527
  0.1372955317419573  0.2500000000663931  0.4075841166272154
  0.2875286424581314  0.2500000000663931  0.4079046570514925
  0.4376249804797800  0.2500000000663931  0.4083878387723110
  0.5876022346371933  0.2500000000663931  0.4082980588949293
  0.7391309805878942  0.2500000000663931  0.3824828006965740
  0.0614411467897217  0.2500000000663931  0.0822397121868123
  0.2124299831331560  0.2500000000663931  0.0918832861178838
  0.3624892358136568  0.2500000000663931  0.0916797857117941
  0.5126922475777577  0.2500000000663931  0.0917904520936055
  0.6616723696653966  0.2500000000663931  0.0914799439255778
  0.0885247423481839  0.7500000176088264  0.9085200355006359
  0.2375048961940991  0.7500000176088264  0.9082095273326082
  0.3877078603124582  0.7500000176088264  0.9083201937144200
  0.5377671765261589  0.7500000176088264  0.9081166933083302
  0.6887560009456704  0.7500000176088264  0.9177602672394011
  0.0273217582300024  0.2500000000663931  0.9622780611447226
  0.1793170014372838  0.2500000000663931  0.9640428350804310
  0.3293910469815795  0.2500000000663931  0.9640222835974429
  0.4795598952460129  0.2500000000663931  0.9642532609074417
  0.6292957554209734  0.2500000000663931  0.9635756280611810
  0.1209013168905985  0.7500000176088264  0.0364243873066646
  0.2706372008801021  0.7500000176088264  0.0357467544604044
  0.4208060809028116  0.7500000176088264  0.0359777317704025
  0.5708801264637625  0.7500000176088264  0.0359571802874150
  0.7228753597288812  0.7500000176088264  0.0377219542231228
  0.0388213508381347  0.7500000176088264  0.4611673267010006
  0.1956532530430739  0.7500000176088264  0.4636516252940953
  0.3456712751609177  0.7500000176088264  0.4641830220356628
  0.4957532824606247  0.7500000176088264  0.4644661948632501
  0.6459362417625881  0.7500000176088264  0.4651609687811892
  0.1042608702509856  0.2500000000663931  0.5348389490184804
  0.2544438454404215  0.2500000000663931  0.5355337229364201
  0.4045258209651974  0.2500000000663931  0.5358168957640070
  0.5545438272122308  0.2500000000663931  0.5363482925055749
  0.7113757889701868  0.2500000000663931  0.5388325910986694
 
  0.00000000E+00  0.00000000E+00  0.00000000E+00
  0.00000000E+00  0.00000000E+00  0.00000000E+00
  0.00000000E+00  0.00000000E+00  0.00000000E+00
  0.00000000E+00  0.00000000E+00  0.00000000E+00
  0.00000000E+00  0.00000000E+00  0.00000000E+00
  0.00000000E+00  0.00000000E+00  0.00000000E+00
  0.00000000E+00  0.00000000E+00  0.00000000E+00
  0.00000000E+00  0.00000000E+00  0.00000000E+00
  0.00000000E+00  0.00000000E+00  0.00000000E+00
  0.00000000E+00  0.00000000E+00  0.00000000E+00
  0.00000000E+00  0.00000000E+00  0.00000000E+00
  0.00000000E+00  0.00000000E+00  0.00000000E+00
  0.00000000E+00  0.00000000E+00  0.00000000E+00
  0.00000000E+00  0.00000000E+00  0.00000000E+00
  0.00000000E+00  0.00000000E+00  0.00000000E+00
  0.00000000E+00  0.00000000E+00  0.00000000E+00
  0.00000000E+00  0.00000000E+00  0.00000000E+00
  0.00000000E+00  0.00000000E+00  0.00000000E+00
  0.00000000E+00  0.00000000E+00  0.00000000E+00
  0.00000000E+00  0.00000000E+00  0.00000000E+00
  0.00000000E+00  0.00000000E+00  0.00000000E+00
  0.00000000E+00  0.00000000E+00  0.00000000E+00
  0.00000000E+00  0.00000000E+00  0.00000000E+00
  0.00000000E+00  0.00000000E+00  0.00000000E+00
  0.00000000E+00  0.00000000E+00  0.00000000E+00
  0.00000000E+00  0.00000000E+00  0.00000000E+00
  0.00000000E+00  0.00000000E+00  0.00000000E+00
  0.00000000E+00  0.00000000E+00  0.00000000E+00
  0.00000000E+00  0.00000000E+00  0.00000000E+00
  0.00000000E+00  0.00000000E+00  0.00000000E+00
  0.00000000E+00  0.00000000E+00  0.00000000E+00
  0.00000000E+00  0.00000000E+00  0.00000000E+00
  0.00000000E+00  0.00000000E+00  0.00000000E+00
  0.00000000E+00  0.00000000E+00  0.00000000E+00
  0.00000000E+00  0.00000000E+00  0.00000000E+00
  0.00000000E+00  0.00000000E+00  0.00000000E+00
  0.00000000E+00  0.00000000E+00  0.00000000E+00
  0.00000000E+00  0.00000000E+00  0.00000000E+00
  0.00000000E+00  0.00000000E+00  0.00000000E+00
  0.00000000E+00  0.00000000E+00  0.00000000E+00
  0.00000000E+00  0.00000000E+00  0.00000000E+00
  0.00000000E+00  0.00000000E+00  0.00000000E+00
  0.00000000E+00  0.00000000E+00  0.00000000E+00
  0.00000000E+00  0.00000000E+00  0.00000000E+00
  0.00000000E+00  0.00000000E+00  0.00000000E+00
  0.00000000E+00  0.00000000E+00  0.00000000E+00
  0.00000000E+00  0.00000000E+00  0.00000000E+00
  0.00000000E+00  0.00000000E+00  0.00000000E+00
  0.00000000E+00  0.00000000E+00  0.00000000E+00
  0.00000000E+00  0.00000000E+00  0.00000000E+00
  0.00000000E+00  0.00000000E+00  0.00000000E+00
  0.00000000E+00  0.00000000E+00  0.00000000E+00
  0.00000000E+00  0.00000000E+00  0.00000000E+00
  0.00000000E+00  0.00000000E+00  0.00000000E+00
  0.00000000E+00  0.00000000E+00  0.00000000E+00
  0.00000000E+00  0.00000000E+00  0.00000000E+00
  0.00000000E+00  0.00000000E+00  0.00000000E+00
  0.00000000E+00  0.00000000E+00  0.00000000E+00
  0.00000000E+00  0.00000000E+00  0.00000000E+00
  0.00000000E+00  0.00000000E+00  0.00000000E+00
  0.00000000E+00  0.00000000E+00  0.00000000E+00
  0.00000000E+00  0.00000000E+00  0.00000000E+00
  0.00000000E+00  0.00000000E+00  0.00000000E+00
  0.00000000E+00  0.00000000E+00  0.00000000E+00
  0.00000000E+00  0.00000000E+00  0.00000000E+00
  0.00000000E+00  0.00000000E+00  0.00000000E+00
  0.00000000E+00  0.00000000E+00  0.00000000E+00
  0.00000000E+00  0.00000000E+00  0.00000000E+00
  0.00000000E+00  0.00000000E+00  0.00000000E+00
  0.00000000E+00  0.00000000E+00  0.00000000E+00
  0.00000000E+00  0.00000000E+00  0.00000000E+00
  0.00000000E+00  0.00000000E+00  0.00000000E+00
  0.00000000E+00  0.00000000E+00  0.00000000E+00
  0.00000000E+00  0.00000000E+00  0.00000000E+00
  0.00000000E+00  0.00000000E+00  0.00000000E+00
  0.00000000E+00  0.00000000E+00  0.00000000E+00
  0.00000000E+00  0.00000000E+00  0.00000000E+00
  0.00000000E+00  0.00000000E+00  0.00000000E+00
  0.00000000E+00  0.00000000E+00  0.00000000E+00
  0.00000000E+00  0.00000000E+00  0.00000000E+00
  0.00000000E+00  0.00000000E+00  0.00000000E+00
  0.00000000E+00  0.00000000E+00  0.00000000E+00
  0.00000000E+00  0.00000000E+00  0.00000000E+00
  0.00000000E+00  0.00000000E+00  0.00000000E+00
  0.00000000E+00  0.00000000E+00  0.00000000E+00
  0.00000000E+00  0.00000000E+00  0.00000000E+00
  0.00000000E+00  0.00000000E+00  0.00000000E+00
  0.00000000E+00  0.00000000E+00  0.00000000E+00
  0.00000000E+00  0.00000000E+00  0.00000000E+00
  0.00000000E+00  0.00000000E+00  0.00000000E+00
  0.00000000E+00  0.00000000E+00  0.00000000E+00
  0.00000000E+00  0.00000000E+00  0.00000000E+00
  0.00000000E+00  0.00000000E+00  0.00000000E+00
  0.00000000E+00  0.00000000E+00  0.00000000E+00
  0.00000000E+00  0.00000000E+00  0.00000000E+00
  0.00000000E+00  0.00000000E+00  0.00000000E+00
  0.00000000E+00  0.00000000E+00  0.00000000E+00
  0.00000000E+00  0.00000000E+00  0.00000000E+00
  0.00000000E+00  0.00000000E+00  0.00000000E+00
  0.00000000E+00  0.00000000E+00  0.00000000E+00
  0.00000000E+00  0.00000000E+00  0.00000000E+00
  0.00000000E+00  0.00000000E+00  0.00000000E+00
  0.00000000E+00  0.00000000E+00  0.00000000E+00
  0.00000000E+00  0.00000000E+00  0.00000000E+00
  0.00000000E+00  0.00000000E+00  0.00000000E+00
  0.00000000E+00  0.00000000E+00  0.00000000E+00
  0.00000000E+00  0.00000000E+00  0.00000000E+00
  0.00000000E+00  0.00000000E+00  0.00000000E+00
  0.00000000E+00  0.00000000E+00  0.00000000E+00
  0.00000000E+00  0.00000000E+00  0.00000000E+00
  0.00000000E+00  0.00000000E+00  0.00000000E+00
  0.00000000E+00  0.00000000E+00  0.00000000E+00
  0.00000000E+00  0.00000000E+00  0.00000000E+00
  0.00000000E+00  0.00000000E+00  0.00000000E+00
  0.00000000E+00  0.00000000E+00  0.00000000E+00
  0.00000000E+00  0.00000000E+00  0.00000000E+00
  0.00000000E+00  0.00000000E+00  0.00000000E+00
  0.00000000E+00  0.00000000E+00  0.00000000E+00
  0.00000000E+00  0.00000000E+00  0.00000000E+00
  0.00000000E+00  0.00000000E+00  0.00000000E+00
