ba8 si16                                
   1.00000000000000     
    81.8534014577906817    0.0000000000000000    0.0000000000000000
     0.0000000000000000    6.7003608708721201    0.0000000000000000
     0.0000000000000000    0.0000000000000000   11.4743632561051712
   Ba   Si
    60   120
Direct
  0.0040033589665500  0.2500000000663931  0.7014523716752573
  0.1110247239732853  0.2500000000663931  0.6903478583196334
  0.2200096799952607  0.2500000000663931  0.6915104361240585
  0.3290380411378885  0.2500000000663931  0.6913598950223196
  0.4382104938618043  0.2500000000663931  0.6913523522478983
  0.5472767502162418  0.2500000000663931  0.6915037369874502
  0.6563830246925485  0.2500000000663931  0.6911806216781656
  0.7667146954501119  0.2500000000663931  0.6928918938801801
  0.1073795346165203  0.7500000176088264  0.3082270958397495
  0.2165525679611698  0.7500000176088264  0.3085321447151773
  0.3255766242018793  0.7500000176088264  0.3085406635357705
  0.4347165860829754  0.7500000176088264  0.3085804502742509
  0.5438182953967022  0.7500000176088264  0.3086181207112707
  0.6528899958242569  0.7500000176088264  0.3086509601880392
  0.7617288013430900  0.7500000176088264  0.3083086371215523
  0.0516234737633642  0.7500000176088264  0.1928918321545156
  0.1619551445209274  0.7500000176088264  0.1911805599525011
  0.2710614305509290  0.7500000176088264  0.1915036752617857
  0.3801276869053665  0.7500000176088264  0.1913522905222335
  0.4893001396171676  0.7500000176088264  0.1913598332966548
  0.5983285007719032  0.7500000176088264  0.1915103743983938
  0.7073134683354656  0.7500000176088264  0.1903477965939684
  0.8143348337055231  0.7500000176088264  0.2014523099495930
  0.0566093909656614  0.2500000000663931  0.8083086782475741
  0.1654481964844942  0.2500000000663931  0.8086510013140606
  0.2745198853704688  0.2500000000663931  0.8086181618372921
  0.3836215946841883  0.2500000000663931  0.8085804914002727
  0.4927615565531768  0.2500000000663931  0.8085407046617923
  0.6017856128060012  0.2500000000663931  0.8085321858411993
  0.7109586345969556  0.2500000000663931  0.8082271369657712
  0.0233760447575782  0.7500000176088264  0.9121227843947981
  0.1269906417749940  0.7500000176088264  0.9057782858015033
  0.2358334871909247  0.7500000176088264  0.9061423606033840
  0.3448359515105462  0.7500000176088264  0.9058206733093903
  0.4540226097612626  0.7500000176088264  0.9057497564927418
  0.5630987887034321  0.7500000176088264  0.9061442866370464
  0.6720819127834501  0.7500000176088264  0.9047644227304467
  0.7806482295983546  0.7500000176088264  0.8958260342767898
  0.0911653490450814  0.2500000000663931  0.0933480086898937
  0.2007148464772118  0.2500000000663931  0.0939863984498774
  0.3097317362573344  0.2500000000663931  0.0939577254905011
  0.4189151757283469  0.2500000000663931  0.0943189708944032
  0.5280098945460244  0.2500000000663931  0.0939772010967873
  0.6370413634880477  0.2500000000663931  0.0937838332210053
  0.7459745705571502  0.2500000000663931  0.0956161527590894
  0.0376899280614337  0.2500000000663931  0.3958261164900449
  0.1462562448763378  0.2500000000663931  0.4047645049437016
  0.2552393689684708  0.2500000000663931  0.4061443688503009
  0.3643155478985255  0.2500000000663931  0.4057498387059964
  0.4735022523518996  0.2500000000663931  0.4058207555226451
  0.5825047166715138  0.2500000000663931  0.4061424428166389
  0.6913475620874446  0.2500000000663931  0.4057783680147586
  0.7949621129022099  0.2500000000663931  0.4121228666080530
  0.0723636333052881  0.7500000176088264  0.5956161322585676
  0.1812968403743983  0.7500000176088264  0.5937838127204834
  0.2903283093043065  0.7500000176088264  0.5939771805962654
  0.3994230050388239  0.7500000176088264  0.5943189503938812
  0.5086064214024536  0.7500000176088264  0.5939577049899790
  0.6176233111825764  0.7500000176088264  0.5939863779493549
  0.7271728086268213  0.7500000176088264  0.5933479881893713
  0.0199054858843312  0.0715057486006957  0.1451977068040378
  0.1299617117026180  0.0701955561470917  0.1456262220758370
  0.2392308699684489  0.0703132737008771  0.1463649925102074
  0.3482241025222343  0.0702773731898332  0.1459891234433338
  0.4574482766657771  0.0701555964726065  0.1461040673327434
  0.5665019561707986  0.0703004887033097  0.1464437823070132
  0.6754933993628686  0.0701803323419973  0.1450976156925264
  0.7844752311933523  0.0713906706152682  0.1422940082647873
  0.0887836713562122  0.9300988781043430  0.8544224988146946
  0.1973405124453711  0.9297055755401833  0.8537218531172276
  0.3063141610722400  0.9297095249646462  0.8535700331118349
  0.4155158970303633  0.9298052761284041  0.8541053540186530
  0.5246082203984752  0.9297018724927258  0.8537606411748108
  0.6335843587479525  0.9297634377304608  0.8535344896314855
  0.7429308476958951  0.9304367105106170  0.8534212920926119
  0.0338629206895881  0.9286093205028552  0.6422940287911660
  0.1428447929458820  0.9298196587761260  0.6450976362189054
  0.2518362245963720  0.9296995024148137  0.6464438028333919
  0.3608899041013937  0.9298443946455168  0.6461040878591222
  0.4701140551375538  0.9297226179282905  0.6459891439697131
  0.5791072876913390  0.9296867174172466  0.6463650130365863
  0.6883764574987501  0.9298044349710320  0.6456262426022159
  0.7984326775522973  0.9284942425174275  0.6451977273304169
  0.0754073157407410  0.0695632806075066  0.3534212920796800
  0.1847538104655231  0.0702365533876628  0.3535344896185536
  0.2937299603686960  0.0702981186253977  0.3537606411618792
  0.4028222837368075  0.0701947149897193  0.3541053540057213
  0.5120240196828159  0.0702904661534772  0.3535700330989031
  0.6209976914170748  0.0702944155779400  0.3537218531042958
  0.7295545267293861  0.0699011130137800  0.3544224988017628
  0.0887836713562122  0.5699011218513902  0.8544224988146946
  0.1973405124453711  0.5702944244155499  0.8537218531172276
  0.3063141610722400  0.5702904749910870  0.8535700331118349
  0.4155158970303633  0.5701947238273291  0.8541053540186530
  0.5246082203984752  0.5702981274630073  0.8537606411748108
  0.6335843587479525  0.5702365622252724  0.8535344896314855
  0.7429308476958951  0.5695632894451161  0.8534212920926119
  0.0199054858843312  0.4284942425321858  0.1451977068040378
  0.1299617117026180  0.4298044349857897  0.1456262220758370
  0.2392308699684489  0.4296867174320042  0.1463649925102074
  0.3482241025222343  0.4297226179430481  0.1459891234433338
  0.4574482766657771  0.4298443946602750  0.1461040673327434
  0.5665019561707986  0.4296995024295715  0.1464437823070132
  0.6754933993628686  0.4298196587908842  0.1450976156925264
  0.7844752311933523  0.4286093205176132  0.1422940082647873
  0.0754073157407410  0.4304367105253748  0.3534212920796800
  0.1847538104655231  0.4297634377452185  0.3535344896185536
  0.2937299603686960  0.4297018725074838  0.3537606411618792
  0.4028222837368075  0.4298052761431621  0.3541053540057213
  0.5120240196828159  0.4297095249794042  0.3535700330989031
  0.6209976914170748  0.4297055755549414  0.3537218531042958
  0.7295545267293861  0.4300988781191013  0.3544224988017628
  0.0338629206895881  0.5713906794528780  0.6422940287911660
  0.1428447929458820  0.5701803411796071  0.6450976362189054
  0.2518362245963720  0.5703004975409195  0.6464438028333919
  0.3608899041013937  0.5701556053102164  0.6461040878591222
  0.4701140551375538  0.5702773820274427  0.6459891439697131
  0.5791072876913390  0.5703132825384866  0.6463650130365863
  0.6883764574987501  0.5701955649847011  0.6456262426022159
  0.7984326775522973  0.5715057574383057  0.6451977273304169
  0.0080403846162974  0.7500000176088264  0.6181771014746863
  0.1183006263493567  0.7500000176088264  0.5910724077277174
  0.2273164251006559  0.7500000176088264  0.5914741325721213
  0.3363726180286032  0.7500000176088264  0.5915872250703041
  0.4455688180714885  0.7500000176088264  0.5913660720125148
  0.5545777209696509  0.7500000176088264  0.5916413446717838
  0.6637961279455029  0.7500000176088264  0.5916341224301830
  0.7734324445824963  0.7500000176088264  0.5826015625564339
  0.0998701265708563  0.2500000000663931  0.4081507358533653
  0.2092736341415644  0.2500000000663931  0.4083345258426535
  0.3182678299893344  0.2500000000663931  0.4083527508044316
  0.4273733509374393  0.2500000000663931  0.4083982894753266
  0.5365438964035628  0.2500000000663931  0.4084025796738503
  0.6455271584141746  0.2500000000663931  0.4084466034553438
  0.7539149870124149  0.2500000000663931  0.4092231911636663
  0.0449057275133529  0.2500000000663931  0.0826015009169583
  0.1545420412679732  0.2500000000663931  0.0916340607907073
  0.2637604366901302  0.2500000000663931  0.0916412830323080
  0.3727693395882996  0.2500000000663931  0.0913660103730389
  0.4819655858338426  0.2500000000663931  0.0915871634308285
  0.5910217787617897  0.2500000000663931  0.0914740709326450
  0.7000375659593944  0.2500000000663931  0.0910723460882415
  0.8102978055367309  0.2500000000663931  0.1181770398352107
  0.0644232053084439  0.7500000176088264  0.9092232322896880
  0.1728110338945762  0.7500000176088264  0.9084466445813655
  0.2817943074588827  0.7500000176088264  0.9084026207998721
  0.3909648298297315  0.7500000176088264  0.9083983306013484
  0.5000703276704466  0.7500000176088264  0.9083527919304532
  0.6090645235182239  0.7500000176088264  0.9083345669686752
  0.7184680426426200  0.7500000176088264  0.9081507769793873
  0.0200967267583159  0.2500000000663931  0.9626324982475702
  0.1304782167197416  0.2500000000663931  0.9640190525347154
  0.2396315449406376  0.2500000000663931  0.9645659614127132
  0.3486679242083574  0.2500000000663931  0.9642101148299342
  0.4578700366379276  0.2500000000663931  0.9643538579461561
  0.5668782041031775  0.2500000000663931  0.9646421117879810
  0.6759790594165391  0.2500000000663931  0.9633461482322959
  0.7900330198396847  0.2500000000663931  0.9621884751912365
  0.0879486150050422  0.7500000176088264  0.0369128986244200
  0.1969216201426193  0.7500000176088264  0.0355307029898364
  0.3059380942818823  0.7500000176088264  0.0353401493488079
  0.4150349413469308  0.7500000176088264  0.0358158760213302
  0.5241988686757119  0.7500000176088264  0.0355312819968935
  0.6332031092006275  0.7500000176088264  0.0353126618558527
  0.7425013913082597  0.7500000176088264  0.0354227452432221
  0.0283050973942934  0.7500000176088264  0.4621883930383132
  0.1423590982432489  0.7500000176088264  0.4633460660793732
  0.2514599535687185  0.7500000176088264  0.4646420296350585
  0.3604681210218605  0.7500000176088264  0.4643537757932337
  0.4696702796540813  0.7500000176088264  0.4642100326770118
  0.5787066589218082  0.7500000176088264  0.4645658792597901
  0.6878599871427041  0.7500000176088264  0.4640189703817929
  0.7982414698860957  0.7500000176088264  0.4626324160946474
  0.0758368067773389  0.2500000000663931  0.5354227298279692
  0.1851350946618115  0.2500000000663931  0.5353126464405995
  0.2941393351746197  0.2500000000663931  0.5355312665816403
  0.4033032394202400  0.2500000000663931  0.5358158606060776
  0.5124000633779058  0.2500000000663931  0.5353401339335547
  0.6214165375171615  0.2500000000663931  0.5355306875745831
  0.7303895484437011  0.2500000000663931  0.5369128832091667
 
  0.00000000E+00  0.00000000E+00  0.00000000E+00
  0.00000000E+00  0.00000000E+00  0.00000000E+00
  0.00000000E+00  0.00000000E+00  0.00000000E+00
  0.00000000E+00  0.00000000E+00  0.00000000E+00
  0.00000000E+00  0.00000000E+00  0.00000000E+00
  0.00000000E+00  0.00000000E+00  0.00000000E+00
  0.00000000E+00  0.00000000E+00  0.00000000E+00
  0.00000000E+00  0.00000000E+00  0.00000000E+00
  0.00000000E+00  0.00000000E+00  0.00000000E+00
  0.00000000E+00  0.00000000E+00  0.00000000E+00
  0.00000000E+00  0.00000000E+00  0.00000000E+00
  0.00000000E+00  0.00000000E+00  0.00000000E+00
  0.00000000E+00  0.00000000E+00  0.00000000E+00
  0.00000000E+00  0.00000000E+00  0.00000000E+00
  0.00000000E+00  0.00000000E+00  0.00000000E+00
  0.00000000E+00  0.00000000E+00  0.00000000E+00
  0.00000000E+00  0.00000000E+00  0.00000000E+00
  0.00000000E+00  0.00000000E+00  0.00000000E+00
  0.00000000E+00  0.00000000E+00  0.00000000E+00
  0.00000000E+00  0.00000000E+00  0.00000000E+00
  0.00000000E+00  0.00000000E+00  0.00000000E+00
  0.00000000E+00  0.00000000E+00  0.00000000E+00
  0.00000000E+00  0.00000000E+00  0.00000000E+00
  0.00000000E+00  0.00000000E+00  0.00000000E+00
  0.00000000E+00  0.00000000E+00  0.00000000E+00
  0.00000000E+00  0.00000000E+00  0.00000000E+00
  0.00000000E+00  0.00000000E+00  0.00000000E+00
  0.00000000E+00  0.00000000E+00  0.00000000E+00
  0.00000000E+00  0.00000000E+00  0.00000000E+00
  0.00000000E+00  0.00000000E+00  0.00000000E+00
  0.00000000E+00  0.00000000E+00  0.00000000E+00
  0.00000000E+00  0.00000000E+00  0.00000000E+00
  0.00000000E+00  0.00000000E+00  0.00000000E+00
  0.00000000E+00  0.00000000E+00  0.00000000E+00
  0.00000000E+00  0.00000000E+00  0.00000000E+00
  0.00000000E+00  0.00000000E+00  0.00000000E+00
  0.00000000E+00  0.00000000E+00  0.00000000E+00
  0.00000000E+00  0.00000000E+00  0.00000000E+00
  0.00000000E+00  0.00000000E+00  0.00000000E+00
  0.00000000E+00  0.00000000E+00  0.00000000E+00
  0.00000000E+00  0.00000000E+00  0.00000000E+00
  0.00000000E+00  0.00000000E+00  0.00000000E+00
  0.00000000E+00  0.00000000E+00  0.00000000E+00
  0.00000000E+00  0.00000000E+00  0.00000000E+00
  0.00000000E+00  0.00000000E+00  0.00000000E+00
  0.00000000E+00  0.00000000E+00  0.00000000E+00
  0.00000000E+00  0.00000000E+00  0.00000000E+00
  0.00000000E+00  0.00000000E+00  0.00000000E+00
  0.00000000E+00  0.00000000E+00  0.00000000E+00
  0.00000000E+00  0.00000000E+00  0.00000000E+00
  0.00000000E+00  0.00000000E+00  0.00000000E+00
  0.00000000E+00  0.00000000E+00  0.00000000E+00
  0.00000000E+00  0.00000000E+00  0.00000000E+00
  0.00000000E+00  0.00000000E+00  0.00000000E+00
  0.00000000E+00  0.00000000E+00  0.00000000E+00
  0.00000000E+00  0.00000000E+00  0.00000000E+00
  0.00000000E+00  0.00000000E+00  0.00000000E+00
  0.00000000E+00  0.00000000E+00  0.00000000E+00
  0.00000000E+00  0.00000000E+00  0.00000000E+00
  0.00000000E+00  0.00000000E+00  0.00000000E+00
  0.00000000E+00  0.00000000E+00  0.00000000E+00
  0.00000000E+00  0.00000000E+00  0.00000000E+00
  0.00000000E+00  0.00000000E+00  0.00000000E+00
  0.00000000E+00  0.00000000E+00  0.00000000E+00
  0.00000000E+00  0.00000000E+00  0.00000000E+00
  0.00000000E+00  0.00000000E+00  0.00000000E+00
  0.00000000E+00  0.00000000E+00  0.00000000E+00
  0.00000000E+00  0.00000000E+00  0.00000000E+00
  0.00000000E+00  0.00000000E+00  0.00000000E+00
  0.00000000E+00  0.00000000E+00  0.00000000E+00
  0.00000000E+00  0.00000000E+00  0.00000000E+00
  0.00000000E+00  0.00000000E+00  0.00000000E+00
  0.00000000E+00  0.00000000E+00  0.00000000E+00
  0.00000000E+00  0.00000000E+00  0.00000000E+00
  0.00000000E+00  0.00000000E+00  0.00000000E+00
  0.00000000E+00  0.00000000E+00  0.00000000E+00
  0.00000000E+00  0.00000000E+00  0.00000000E+00
  0.00000000E+00  0.00000000E+00  0.00000000E+00
  0.00000000E+00  0.00000000E+00  0.00000000E+00
  0.00000000E+00  0.00000000E+00  0.00000000E+00
  0.00000000E+00  0.00000000E+00  0.00000000E+00
  0.00000000E+00  0.00000000E+00  0.00000000E+00
  0.00000000E+00  0.00000000E+00  0.00000000E+00
  0.00000000E+00  0.00000000E+00  0.00000000E+00
  0.00000000E+00  0.00000000E+00  0.00000000E+00
  0.00000000E+00  0.00000000E+00  0.00000000E+00
  0.00000000E+00  0.00000000E+00  0.00000000E+00
  0.00000000E+00  0.00000000E+00  0.00000000E+00
  0.00000000E+00  0.00000000E+00  0.00000000E+00
  0.00000000E+00  0.00000000E+00  0.00000000E+00
  0.00000000E+00  0.00000000E+00  0.00000000E+00
  0.00000000E+00  0.00000000E+00  0.00000000E+00
  0.00000000E+00  0.00000000E+00  0.00000000E+00
  0.00000000E+00  0.00000000E+00  0.00000000E+00
  0.00000000E+00  0.00000000E+00  0.00000000E+00
  0.00000000E+00  0.00000000E+00  0.00000000E+00
  0.00000000E+00  0.00000000E+00  0.00000000E+00
  0.00000000E+00  0.00000000E+00  0.00000000E+00
  0.00000000E+00  0.00000000E+00  0.00000000E+00
  0.00000000E+00  0.00000000E+00  0.00000000E+00
  0.00000000E+00  0.00000000E+00  0.00000000E+00
  0.00000000E+00  0.00000000E+00  0.00000000E+00
  0.00000000E+00  0.00000000E+00  0.00000000E+00
  0.00000000E+00  0.00000000E+00  0.00000000E+00
  0.00000000E+00  0.00000000E+00  0.00000000E+00
  0.00000000E+00  0.00000000E+00  0.00000000E+00
  0.00000000E+00  0.00000000E+00  0.00000000E+00
  0.00000000E+00  0.00000000E+00  0.00000000E+00
  0.00000000E+00  0.00000000E+00  0.00000000E+00
  0.00000000E+00  0.00000000E+00  0.00000000E+00
  0.00000000E+00  0.00000000E+00  0.00000000E+00
  0.00000000E+00  0.00000000E+00  0.00000000E+00
  0.00000000E+00  0.00000000E+00  0.00000000E+00
  0.00000000E+00  0.00000000E+00  0.00000000E+00
  0.00000000E+00  0.00000000E+00  0.00000000E+00
  0.00000000E+00  0.00000000E+00  0.00000000E+00
  0.00000000E+00  0.00000000E+00  0.00000000E+00
  0.00000000E+00  0.00000000E+00  0.00000000E+00
  0.00000000E+00  0.00000000E+00  0.00000000E+00
  0.00000000E+00  0.00000000E+00  0.00000000E+00
  0.00000000E+00  0.00000000E+00  0.00000000E+00
  0.00000000E+00  0.00000000E+00  0.00000000E+00
  0.00000000E+00  0.00000000E+00  0.00000000E+00
  0.00000000E+00  0.00000000E+00  0.00000000E+00
  0.00000000E+00  0.00000000E+00  0.00000000E+00
  0.00000000E+00  0.00000000E+00  0.00000000E+00
  0.00000000E+00  0.00000000E+00  0.00000000E+00
  0.00000000E+00  0.00000000E+00  0.00000000E+00
  0.00000000E+00  0.00000000E+00  0.00000000E+00
  0.00000000E+00  0.00000000E+00  0.00000000E+00
  0.00000000E+00  0.00000000E+00  0.00000000E+00
  0.00000000E+00  0.00000000E+00  0.00000000E+00
  0.00000000E+00  0.00000000E+00  0.00000000E+00
  0.00000000E+00  0.00000000E+00  0.00000000E+00
  0.00000000E+00  0.00000000E+00  0.00000000E+00
  0.00000000E+00  0.00000000E+00  0.00000000E+00
  0.00000000E+00  0.00000000E+00  0.00000000E+00
  0.00000000E+00  0.00000000E+00  0.00000000E+00
  0.00000000E+00  0.00000000E+00  0.00000000E+00
  0.00000000E+00  0.00000000E+00  0.00000000E+00
  0.00000000E+00  0.00000000E+00  0.00000000E+00
  0.00000000E+00  0.00000000E+00  0.00000000E+00
  0.00000000E+00  0.00000000E+00  0.00000000E+00
  0.00000000E+00  0.00000000E+00  0.00000000E+00
  0.00000000E+00  0.00000000E+00  0.00000000E+00
  0.00000000E+00  0.00000000E+00  0.00000000E+00
  0.00000000E+00  0.00000000E+00  0.00000000E+00
  0.00000000E+00  0.00000000E+00  0.00000000E+00
  0.00000000E+00  0.00000000E+00  0.00000000E+00
  0.00000000E+00  0.00000000E+00  0.00000000E+00
  0.00000000E+00  0.00000000E+00  0.00000000E+00
  0.00000000E+00  0.00000000E+00  0.00000000E+00
  0.00000000E+00  0.00000000E+00  0.00000000E+00
  0.00000000E+00  0.00000000E+00  0.00000000E+00
  0.00000000E+00  0.00000000E+00  0.00000000E+00
  0.00000000E+00  0.00000000E+00  0.00000000E+00
  0.00000000E+00  0.00000000E+00  0.00000000E+00
  0.00000000E+00  0.00000000E+00  0.00000000E+00
  0.00000000E+00  0.00000000E+00  0.00000000E+00
  0.00000000E+00  0.00000000E+00  0.00000000E+00
  0.00000000E+00  0.00000000E+00  0.00000000E+00
  0.00000000E+00  0.00000000E+00  0.00000000E+00
  0.00000000E+00  0.00000000E+00  0.00000000E+00
  0.00000000E+00  0.00000000E+00  0.00000000E+00
  0.00000000E+00  0.00000000E+00  0.00000000E+00
  0.00000000E+00  0.00000000E+00  0.00000000E+00
  0.00000000E+00  0.00000000E+00  0.00000000E+00
  0.00000000E+00  0.00000000E+00  0.00000000E+00
  0.00000000E+00  0.00000000E+00  0.00000000E+00
  0.00000000E+00  0.00000000E+00  0.00000000E+00
  0.00000000E+00  0.00000000E+00  0.00000000E+00
  0.00000000E+00  0.00000000E+00  0.00000000E+00
  0.00000000E+00  0.00000000E+00  0.00000000E+00
  0.00000000E+00  0.00000000E+00  0.00000000E+00
  0.00000000E+00  0.00000000E+00  0.00000000E+00
  0.00000000E+00  0.00000000E+00  0.00000000E+00
  0.00000000E+00  0.00000000E+00  0.00000000E+00
  0.00000000E+00  0.00000000E+00  0.00000000E+00
  0.00000000E+00  0.00000000E+00  0.00000000E+00
  0.00000000E+00  0.00000000E+00  0.00000000E+00
