ba8 si16                                
   1.00000000000000     
    77.3951767883686159    0.0000000000000000   -0.0024781397942733
     0.0000000000000000    6.7005334432172674    0.0000000000000000
    -0.0004258976034462    0.0000000000000000   11.4679240263360409
   Ba   Si
    56   112
Direct
  0.0042258098454591  0.2500000000663931  0.7007311239536068
  0.1173373549093653  0.2500000000663931  0.6902594716409128
  0.2326231330984317  0.2500000000663931  0.6915131664060451
  0.3480513807093263  0.2500000000663931  0.6915731621128246
  0.4634999248416561  0.2500000000663931  0.6915305039497410
  0.5789259909755888  0.2500000000663931  0.6913552418401736
  0.6943398664109485  0.2500000000663931  0.6918671128826898
  0.1135157429233200  0.7500000176088264  0.3081328871431665
  0.2289296305790624  0.7500000176088264  0.3086447581856832
  0.3443556967129952  0.7500000176088264  0.3084694960761160
  0.4598042164173631  0.7500000176088264  0.3084268379130323
  0.5752324640282580  0.7500000176088264  0.3084868336198114
  0.6905182299969413  0.7500000176088264  0.3097405283849434
  0.8036297756372827  0.7500000176088264  0.2992688760722497
  0.0544994525902737  0.7500000176088264  0.1926997665831363
  0.1712107831931300  0.7500000176088264  0.1909937804461101
  0.2866334231176813  0.7500000176088264  0.1914781538145771
  0.4020944879996045  0.7500000176088264  0.1915882167702837
  0.5175141634093930  0.7500000176088264  0.1915198633779505
  0.6329711135654141  0.7500000176088264  0.1915244215456188
  0.7480623438186850  0.7500000176088264  0.1916801071176975
  0.0597932410748106  0.2500000000663931  0.8083198723085165
  0.1748844713408922  0.2500000000663931  0.8084755578805948
  0.2903414337044852  0.2500000000663931  0.8084801160482635
  0.4057610846863119  0.2500000000663931  0.8084117626559301
  0.5212221251402733  0.2500000000663931  0.8085218256116367
  0.6366447772852151  0.2500000000663931  0.8090061989801037
  0.7533561078880709  0.2500000000663931  0.8073002128430775
  0.0245893903401679  0.7500000176088264  0.9119712202543162
  0.1341914569143491  0.7500000176088264  0.9058916233147434
  0.2493596340572198  0.7500000176088264  0.9061185389564873
  0.3647647997863580  0.7500000176088264  0.9060725909520851
  0.4801520159057763  0.7500000176088264  0.9060239010402227
  0.5956307789235469  0.7500000176088264  0.9062133543040314
  0.7115150162047621  0.7500000176088264  0.9071301049417028
  0.0963405809219274  0.2500000000663931  0.0928698744845111
  0.2122248181903312  0.2500000000663931  0.0937866251221821
  0.3277035812209131  0.2500000000663931  0.0939760783859909
  0.4430907973403385  0.2500000000663931  0.0939273884741288
  0.5584959630566656  0.2500000000663931  0.0938814404697264
  0.6736641402123400  0.2500000000663931  0.0941083561114704
  0.7832662052621725  0.2500000000663931  0.0880287591718977
  0.0398364795263105  0.2500000000663931  0.3952689407259969
  0.1545961276726426  0.2500000000663931  0.4049679429441851
  0.2699470615909915  0.2500000000663931  0.4060750429106156
  0.3853997585953048  0.2500000000663931  0.4060054750864916
  0.5008467145217451  0.2500000000663931  0.4060705997591910
  0.6161880920970926  0.2500000000663931  0.4063246104495781
  0.7313477845995211  0.2500000000663931  0.4050492057292582
  0.0765077697686316  0.7500000176088264  0.5949508354096885
  0.1916675172499802  0.7500000176088264  0.5936754306893682
  0.3070088337234054  0.7500000176088264  0.5939294413797552
  0.4224557896626569  0.7500000176088264  0.5939945660524547
  0.5379085355356983  0.7500000176088264  0.5939249982283307
  0.6532594694540468  0.7500000176088264  0.5950320981947615
  0.7680191175875676  0.7500000176088264  0.6047311004129490
  0.0208622159356366  0.0714918529325932  0.1450830192444344
  0.1373891017502004  0.0702866030040132  0.1457598734104165
  0.2529380634838239  0.0703180457557031  0.1463765024403811
  0.3684243059618699  0.0703191196160223  0.1463546519166339
  0.4838357112171866  0.0702766379371975  0.1462851231997540
  0.5992463096536518  0.0702836720779296  0.1465342380292306
  0.7140530986537957  0.0699106314900366  0.1460062759835080
  0.0938024862525108  0.9300893596280864  0.8539937035289016
  0.2086092874730444  0.9297163190401940  0.8534657414831791
  0.3240198859095099  0.9297233531809259  0.8537148563126554
  0.4394312422960918  0.9296808715021010  0.8536453275957759
  0.5549174847741305  0.9296819453624200  0.8536234770720287
  0.6704664587153401  0.9297133881141101  0.8542401061019933
  0.7869933384325094  0.9285081381855302  0.8549169602679755
  0.0358636991721781  0.9284816000848588  0.6417701987903882
  0.1509766396260372  0.9297509636103379  0.6452961713685424
  0.2662766228578589  0.9297112646204179  0.6463666751311528
  0.3817159747904785  0.9297362433194221  0.6462349435583600
  0.4971559736961660  0.9296818931260713  0.6463628299991803
  0.6126017318920124  0.9297813763878982  0.6462985410962399
  0.7281281719819102  0.9304690386515814  0.6471794911889807
  0.0797274312421595  0.0695309524665421  0.3528205088368760
  0.1952538774550597  0.0702186147302251  0.3537014589296168
  0.3106996478584853  0.0703180979920523  0.3536371700266767
  0.4261396223362180  0.0702637477987013  0.3537650564674966
  0.5415789742560263  0.0702887264977050  0.3536333248947036
  0.6568789452802696  0.0702490275077853  0.3547038286573139
  0.7719918918315157  0.0715183910332647  0.3582298012354684
  0.0938024862525108  0.5699106403276468  0.8539937035289016
  0.2086092874730444  0.5702836809155392  0.8534657414831791
  0.3240198859095099  0.5702766467748073  0.8537148563126554
  0.4394312422960918  0.5703191284536322  0.8536453275957759
  0.5549174847741305  0.5703180545933132  0.8536234770720287
  0.6704664587153401  0.5702866118416231  0.8542401061019933
  0.7869933384325094  0.5714918617702029  0.8549169602679755
  0.0208622159356366  0.4285081382002881  0.1450830192444344
  0.1373891017502004  0.4297133881288682  0.1457598734104165
  0.2529380634838239  0.4296819453771784  0.1463765024403811
  0.3684243059618699  0.4296808715168590  0.1463546519166339
  0.4838357112171866  0.4297233531956840  0.1462851231997540
  0.5992463096536518  0.4297163190549517  0.1465342380292306
  0.7140530986537957  0.4300893596428448  0.1460062759835080
  0.0797274312421595  0.4304690386663393  0.3528205088368760
  0.1952538774550597  0.4297813764026563  0.3537014589296168
  0.3106996478584853  0.4296818931408290  0.3536371700266767
  0.4261396223362180  0.4297362433341800  0.3537650564674966
  0.5415789742560263  0.4297112646351765  0.3536333248947036
  0.6568789452802696  0.4297509636250962  0.3547038286573139
  0.7719918918315157  0.4284816000996167  0.3582298012354684
  0.0358636991721781  0.5715183998708744  0.6417701987903882
  0.1509766396260372  0.5702490363453953  0.6452961713685424
  0.2662766228578589  0.5702887353353153  0.6463666751311528
  0.3817159747904785  0.5702637566363111  0.6462349435583600
  0.4971559736961660  0.5703181068296619  0.6463628299991803
  0.6126017318920124  0.5702186235678350  0.6462985410962399
  0.7281281719819102  0.5695309613041518  0.6471794911889807
  0.0085461966101680  0.7500000176088264  0.6177170068122025
  0.1250324487216059  0.7500000176088264  0.5908129865321615
  0.2403268013488804  0.7500000176088264  0.5917230614772825
  0.3557451402160515  0.7500000176088264  0.5918248322644137
  0.4711872957248404  0.7500000176088264  0.5919076960781514
  0.5866565655040645  0.7500000176088264  0.5917089538763209
  0.7022979135360464  0.7500000176088264  0.5921587946105356
  0.1055576469294871  0.2500000000663931  0.4078412053291324
  0.2211989827538975  0.2500000000663931  0.4082910460633467
  0.3366682769610831  0.2500000000663931  0.4080923038615165
  0.4521103836139483  0.2500000000663931  0.4081751676752537
  0.5675287957649979  0.2500000000663931  0.4082769384623856
  0.6828231484050833  0.2500000000663931  0.4091870134075063
  0.7993093860160211  0.2500000000663931  0.3822829931274651
  0.0473065033266350  0.2500000000663931  0.0824446261793050
  0.1633702962354177  0.2500000000663931  0.0915864795548501
  0.2789075579316475  0.2500000000663931  0.0920035631502831
  0.3944009340968960  0.2500000000663931  0.0919292451031062
  0.5097973589726540  0.2500000000663931  0.0916898063828230
  0.6251601571988495  0.2500000000663931  0.0915494606538855
  0.7397952822488209  0.2500000000663931  0.0912996481099320
  0.0680603026574854  0.7500000176088264  0.9087003313162818
  0.1826954277074571  0.7500000176088264  0.9084505187723284
  0.2980582137132625  0.7500000176088264  0.9083101730433908
  0.4134546385890275  0.7500000176088264  0.9080707343231078
  0.5289480636230102  0.7500000176088264  0.9079964162759305
  0.6444853253192337  0.7500000176088264  0.9084134998713637
  0.7605491090563237  0.7500000176088264  0.9175553532469087
  0.0210745736589156  0.2500000000663931  0.9623837556739817
  0.1378855688945416  0.2500000000663931  0.9640691518807444
  0.2534330769268087  0.2500000000663931  0.9645074522156354
  0.3689189878597569  0.2500000000663931  0.9645299823982357
  0.4843022934203374  0.2500000000663931  0.9643299886912288
  0.5996353138777338  0.2500000000663931  0.9646168225245861
  0.7149089984097320  0.2500000000663931  0.9633403550297875
  0.0929465559584141  0.7500000176088264  0.0366596603380584
  0.2082202343802204  0.7500000176088264  0.0353831928432595
  0.3235533281343139  0.7500000176088264  0.0356700266766168
  0.4389365603982048  0.7500000176088264  0.0354700329696099
  0.5544225201870771  0.7500000176088264  0.0354925631522103
  0.6699700282321556  0.7500000176088264  0.0359308634871012
  0.7867810173575827  0.7500000176088264  0.0376162596938636
  0.0299434588568418  0.7500000176088264  0.4615761632179338
  0.1505190032902064  0.7500000176088264  0.4634139484783218
  0.2658323680443574  0.7500000176088264  0.4644501910933871
  0.3812275499341754  0.7500000176088264  0.4644195833918330
  0.4966759884581444  0.7500000176088264  0.4644953199216269
  0.6121558838446056  0.7500000176088264  0.4644492039583761
  0.7277406638901220  0.7500000176088264  0.4650395789380061
  0.0801148782576481  0.2500000000663931  0.5349603388616635
  0.1956997132820908  0.2500000000663931  0.5355507138412939
  0.3111796086557411  0.2500000000663931  0.5355045978780431
  0.4266280227645592  0.2500000000663931  0.5355803344078371
  0.5420232535102939  0.2500000000663931  0.5355497267062830
  0.6573366060568657  0.2500000000663931  0.5365859693213485
  0.7779121474287294  0.2500000000663931  0.5384237545817357
 
  0.00000000E+00  0.00000000E+00  0.00000000E+00
  0.00000000E+00  0.00000000E+00  0.00000000E+00
  0.00000000E+00  0.00000000E+00  0.00000000E+00
  0.00000000E+00  0.00000000E+00  0.00000000E+00
  0.00000000E+00  0.00000000E+00  0.00000000E+00
  0.00000000E+00  0.00000000E+00  0.00000000E+00
  0.00000000E+00  0.00000000E+00  0.00000000E+00
  0.00000000E+00  0.00000000E+00  0.00000000E+00
  0.00000000E+00  0.00000000E+00  0.00000000E+00
  0.00000000E+00  0.00000000E+00  0.00000000E+00
  0.00000000E+00  0.00000000E+00  0.00000000E+00
  0.00000000E+00  0.00000000E+00  0.00000000E+00
  0.00000000E+00  0.00000000E+00  0.00000000E+00
  0.00000000E+00  0.00000000E+00  0.00000000E+00
  0.00000000E+00  0.00000000E+00  0.00000000E+00
  0.00000000E+00  0.00000000E+00  0.00000000E+00
  0.00000000E+00  0.00000000E+00  0.00000000E+00
  0.00000000E+00  0.00000000E+00  0.00000000E+00
  0.00000000E+00  0.00000000E+00  0.00000000E+00
  0.00000000E+00  0.00000000E+00  0.00000000E+00
  0.00000000E+00  0.00000000E+00  0.00000000E+00
  0.00000000E+00  0.00000000E+00  0.00000000E+00
  0.00000000E+00  0.00000000E+00  0.00000000E+00
  0.00000000E+00  0.00000000E+00  0.00000000E+00
  0.00000000E+00  0.00000000E+00  0.00000000E+00
  0.00000000E+00  0.00000000E+00  0.00000000E+00
  0.00000000E+00  0.00000000E+00  0.00000000E+00
  0.00000000E+00  0.00000000E+00  0.00000000E+00
  0.00000000E+00  0.00000000E+00  0.00000000E+00
  0.00000000E+00  0.00000000E+00  0.00000000E+00
  0.00000000E+00  0.00000000E+00  0.00000000E+00
  0.00000000E+00  0.00000000E+00  0.00000000E+00
  0.00000000E+00  0.00000000E+00  0.00000000E+00
  0.00000000E+00  0.00000000E+00  0.00000000E+00
  0.00000000E+00  0.00000000E+00  0.00000000E+00
  0.00000000E+00  0.00000000E+00  0.00000000E+00
  0.00000000E+00  0.00000000E+00  0.00000000E+00
  0.00000000E+00  0.00000000E+00  0.00000000E+00
  0.00000000E+00  0.00000000E+00  0.00000000E+00
  0.00000000E+00  0.00000000E+00  0.00000000E+00
  0.00000000E+00  0.00000000E+00  0.00000000E+00
  0.00000000E+00  0.00000000E+00  0.00000000E+00
  0.00000000E+00  0.00000000E+00  0.00000000E+00
  0.00000000E+00  0.00000000E+00  0.00000000E+00
  0.00000000E+00  0.00000000E+00  0.00000000E+00
  0.00000000E+00  0.00000000E+00  0.00000000E+00
  0.00000000E+00  0.00000000E+00  0.00000000E+00
  0.00000000E+00  0.00000000E+00  0.00000000E+00
  0.00000000E+00  0.00000000E+00  0.00000000E+00
  0.00000000E+00  0.00000000E+00  0.00000000E+00
  0.00000000E+00  0.00000000E+00  0.00000000E+00
  0.00000000E+00  0.00000000E+00  0.00000000E+00
  0.00000000E+00  0.00000000E+00  0.00000000E+00
  0.00000000E+00  0.00000000E+00  0.00000000E+00
  0.00000000E+00  0.00000000E+00  0.00000000E+00
  0.00000000E+00  0.00000000E+00  0.00000000E+00
  0.00000000E+00  0.00000000E+00  0.00000000E+00
  0.00000000E+00  0.00000000E+00  0.00000000E+00
  0.00000000E+00  0.00000000E+00  0.00000000E+00
  0.00000000E+00  0.00000000E+00  0.00000000E+00
  0.00000000E+00  0.00000000E+00  0.00000000E+00
  0.00000000E+00  0.00000000E+00  0.00000000E+00
  0.00000000E+00  0.00000000E+00  0.00000000E+00
  0.00000000E+00  0.00000000E+00  0.00000000E+00
  0.00000000E+00  0.00000000E+00  0.00000000E+00
  0.00000000E+00  0.00000000E+00  0.00000000E+00
  0.00000000E+00  0.00000000E+00  0.00000000E+00
  0.00000000E+00  0.00000000E+00  0.00000000E+00
  0.00000000E+00  0.00000000E+00  0.00000000E+00
  0.00000000E+00  0.00000000E+00  0.00000000E+00
  0.00000000E+00  0.00000000E+00  0.00000000E+00
  0.00000000E+00  0.00000000E+00  0.00000000E+00
  0.00000000E+00  0.00000000E+00  0.00000000E+00
  0.00000000E+00  0.00000000E+00  0.00000000E+00
  0.00000000E+00  0.00000000E+00  0.00000000E+00
  0.00000000E+00  0.00000000E+00  0.00000000E+00
  0.00000000E+00  0.00000000E+00  0.00000000E+00
  0.00000000E+00  0.00000000E+00  0.00000000E+00
  0.00000000E+00  0.00000000E+00  0.00000000E+00
  0.00000000E+00  0.00000000E+00  0.00000000E+00
  0.00000000E+00  0.00000000E+00  0.00000000E+00
  0.00000000E+00  0.00000000E+00  0.00000000E+00
  0.00000000E+00  0.00000000E+00  0.00000000E+00
  0.00000000E+00  0.00000000E+00  0.00000000E+00
  0.00000000E+00  0.00000000E+00  0.00000000E+00
  0.00000000E+00  0.00000000E+00  0.00000000E+00
  0.00000000E+00  0.00000000E+00  0.00000000E+00
  0.00000000E+00  0.00000000E+00  0.00000000E+00
  0.00000000E+00  0.00000000E+00  0.00000000E+00
  0.00000000E+00  0.00000000E+00  0.00000000E+00
  0.00000000E+00  0.00000000E+00  0.00000000E+00
  0.00000000E+00  0.00000000E+00  0.00000000E+00
  0.00000000E+00  0.00000000E+00  0.00000000E+00
  0.00000000E+00  0.00000000E+00  0.00000000E+00
  0.00000000E+00  0.00000000E+00  0.00000000E+00
  0.00000000E+00  0.00000000E+00  0.00000000E+00
  0.00000000E+00  0.00000000E+00  0.00000000E+00
  0.00000000E+00  0.00000000E+00  0.00000000E+00
  0.00000000E+00  0.00000000E+00  0.00000000E+00
  0.00000000E+00  0.00000000E+00  0.00000000E+00
  0.00000000E+00  0.00000000E+00  0.00000000E+00
  0.00000000E+00  0.00000000E+00  0.00000000E+00
  0.00000000E+00  0.00000000E+00  0.00000000E+00
  0.00000000E+00  0.00000000E+00  0.00000000E+00
  0.00000000E+00  0.00000000E+00  0.00000000E+00
  0.00000000E+00  0.00000000E+00  0.00000000E+00
  0.00000000E+00  0.00000000E+00  0.00000000E+00
  0.00000000E+00  0.00000000E+00  0.00000000E+00
  0.00000000E+00  0.00000000E+00  0.00000000E+00
  0.00000000E+00  0.00000000E+00  0.00000000E+00
  0.00000000E+00  0.00000000E+00  0.00000000E+00
  0.00000000E+00  0.00000000E+00  0.00000000E+00
  0.00000000E+00  0.00000000E+00  0.00000000E+00
  0.00000000E+00  0.00000000E+00  0.00000000E+00
  0.00000000E+00  0.00000000E+00  0.00000000E+00
  0.00000000E+00  0.00000000E+00  0.00000000E+00
  0.00000000E+00  0.00000000E+00  0.00000000E+00
  0.00000000E+00  0.00000000E+00  0.00000000E+00
  0.00000000E+00  0.00000000E+00  0.00000000E+00
  0.00000000E+00  0.00000000E+00  0.00000000E+00
  0.00000000E+00  0.00000000E+00  0.00000000E+00
  0.00000000E+00  0.00000000E+00  0.00000000E+00
  0.00000000E+00  0.00000000E+00  0.00000000E+00
  0.00000000E+00  0.00000000E+00  0.00000000E+00
  0.00000000E+00  0.00000000E+00  0.00000000E+00
  0.00000000E+00  0.00000000E+00  0.00000000E+00
  0.00000000E+00  0.00000000E+00  0.00000000E+00
  0.00000000E+00  0.00000000E+00  0.00000000E+00
  0.00000000E+00  0.00000000E+00  0.00000000E+00
  0.00000000E+00  0.00000000E+00  0.00000000E+00
  0.00000000E+00  0.00000000E+00  0.00000000E+00
  0.00000000E+00  0.00000000E+00  0.00000000E+00
  0.00000000E+00  0.00000000E+00  0.00000000E+00
  0.00000000E+00  0.00000000E+00  0.00000000E+00
  0.00000000E+00  0.00000000E+00  0.00000000E+00
  0.00000000E+00  0.00000000E+00  0.00000000E+00
  0.00000000E+00  0.00000000E+00  0.00000000E+00
  0.00000000E+00  0.00000000E+00  0.00000000E+00
  0.00000000E+00  0.00000000E+00  0.00000000E+00
  0.00000000E+00  0.00000000E+00  0.00000000E+00
  0.00000000E+00  0.00000000E+00  0.00000000E+00
  0.00000000E+00  0.00000000E+00  0.00000000E+00
  0.00000000E+00  0.00000000E+00  0.00000000E+00
  0.00000000E+00  0.00000000E+00  0.00000000E+00
  0.00000000E+00  0.00000000E+00  0.00000000E+00
  0.00000000E+00  0.00000000E+00  0.00000000E+00
  0.00000000E+00  0.00000000E+00  0.00000000E+00
  0.00000000E+00  0.00000000E+00  0.00000000E+00
  0.00000000E+00  0.00000000E+00  0.00000000E+00
  0.00000000E+00  0.00000000E+00  0.00000000E+00
  0.00000000E+00  0.00000000E+00  0.00000000E+00
  0.00000000E+00  0.00000000E+00  0.00000000E+00
  0.00000000E+00  0.00000000E+00  0.00000000E+00
  0.00000000E+00  0.00000000E+00  0.00000000E+00
  0.00000000E+00  0.00000000E+00  0.00000000E+00
  0.00000000E+00  0.00000000E+00  0.00000000E+00
  0.00000000E+00  0.00000000E+00  0.00000000E+00
  0.00000000E+00  0.00000000E+00  0.00000000E+00
  0.00000000E+00  0.00000000E+00  0.00000000E+00
  0.00000000E+00  0.00000000E+00  0.00000000E+00
  0.00000000E+00  0.00000000E+00  0.00000000E+00
  0.00000000E+00  0.00000000E+00  0.00000000E+00
  0.00000000E+00  0.00000000E+00  0.00000000E+00
  0.00000000E+00  0.00000000E+00  0.00000000E+00
  0.00000000E+00  0.00000000E+00  0.00000000E+00
  0.00000000E+00  0.00000000E+00  0.00000000E+00
  0.00000000E+00  0.00000000E+00  0.00000000E+00
  0.00000000E+00  0.00000000E+00  0.00000000E+00
