C
1.0
        2.4560000896         0.0000000000         0.0000000000
       -1.2280000448         2.1269584693         0.0000000000
        0.0000000000         0.0000000000         5.9960000992
    C
    4
Cartesian
     0.000000000         0.000000000         0.000000000 T T F
     0.000000000         0.000000000         2.99800005 T T F
     0.000000000         1.417972355         0.000000000 T T F
     1.227999972         0.708986114         2.99800005 T T F
