ba8 si8 c8                              
   1.00000000000000     
     8.6498963261927013   -0.0000000000000000    0.0000000000000000
    -0.0000000000000000    6.0564259749453937    0.0000000000000000
     0.0000000000000000    0.0000000000000000   11.4871453913372559
   Ba   Si   C 
     8     8     8
Direct
 -0.0297160128837017  0.2500000000663931  0.6501857795976145
  0.0297160161469331  0.7500000176088264  0.3498142204282425
  0.5297160161802288  0.7500000176088264  0.1501857178719497
  0.4702839837531714  0.2500000000663931  0.8498142615542639
  0.1235312145972765  0.7500000176088264  0.9272418979436386
  0.8764687854471253  0.2500000000663931  0.0727580814825747
  0.3764687853694274  0.2500000000663931  0.4272419801568940
  0.6235312145639734  0.7500000176088264  0.5727580609820530
  0.2159535296415586  0.0565778281093477  0.1655083768775375
  0.7840464704028359  0.9434221630087758  0.8344916026348719
  0.2840464703251382  0.9434221630087758  0.6655083974039167
  0.7159535296082628  0.0565778281093477  0.3344916026219404
  0.7840464704028359  0.5565778369469574  0.8344916026348719
  0.2159535296415586  0.4434221630235337  0.1655083768775375
  0.7159535296082628  0.4434221630235337  0.3344916026219404
  0.2840464703251382  0.5565778369469574  0.6655083974039167
  0.1405861664837941  0.7500000176088264  0.5734555807692330
  0.8594138136926176  0.2500000000663931  0.4265444191704349
  0.3594138401425711  0.2500000000663931  0.0734555191297570
  0.6405861863184811  0.7500000176088264  0.9265444602964565
  0.2054354885020125  0.2500000000663931  0.0226937630018844
  0.7945644983340611  0.7500000176088264 -0.0226937476340390
  0.2945644982563627  0.7500000176088264  0.5226936808489621
  0.7054355016770376  0.2500000000663931  0.4773062369507083
 
  0.00000000E+00  0.00000000E+00  0.00000000E+00
  0.00000000E+00  0.00000000E+00  0.00000000E+00
  0.00000000E+00  0.00000000E+00  0.00000000E+00
  0.00000000E+00  0.00000000E+00  0.00000000E+00
  0.00000000E+00  0.00000000E+00  0.00000000E+00
  0.00000000E+00  0.00000000E+00  0.00000000E+00
  0.00000000E+00  0.00000000E+00  0.00000000E+00
  0.00000000E+00  0.00000000E+00  0.00000000E+00
  0.00000000E+00  0.00000000E+00  0.00000000E+00
  0.00000000E+00  0.00000000E+00  0.00000000E+00
  0.00000000E+00  0.00000000E+00  0.00000000E+00
  0.00000000E+00  0.00000000E+00  0.00000000E+00
  0.00000000E+00  0.00000000E+00  0.00000000E+00
  0.00000000E+00  0.00000000E+00  0.00000000E+00
  0.00000000E+00  0.00000000E+00  0.00000000E+00
  0.00000000E+00  0.00000000E+00  0.00000000E+00
  0.00000000E+00  0.00000000E+00  0.00000000E+00
  0.00000000E+00  0.00000000E+00  0.00000000E+00
  0.00000000E+00  0.00000000E+00  0.00000000E+00
  0.00000000E+00  0.00000000E+00  0.00000000E+00
  0.00000000E+00  0.00000000E+00  0.00000000E+00
  0.00000000E+00  0.00000000E+00  0.00000000E+00
  0.00000000E+00  0.00000000E+00  0.00000000E+00
  0.00000000E+00  0.00000000E+00  0.00000000E+00
