ba8 si16
1.0
       28.5142021179         0.0000000000         0.0000000000
        0.0000000000         6.7778496742         0.0000000000
        0.0000000000         0.0000000000        11.6021432877
   Ba   Si
   12   24
Cartesian
0.1367006600	1.6944624190	8.0206775670
4.3680334090	5.0833873750	2.2196052070
4.6414346690	1.6944624190	9.3825378420
9.1461687090	1.6944624190	8.0206775670
8.8727674480	5.0833873750	3.5814657210
13.3775014880	5.0833873750	2.2196052070
1.4352893830	5.0833873750	10.5190830230
3.0694446560	1.6944624190	4.7180123330
5.9400234220	5.0833873750	6.8841314320
10.4447574620	5.0833873750	10.5190830230
7.5741786960	1.6944624190	1.0830600260
12.0789127350	1.6944624190	4.7180123330
1.7502694130	0.4916719790	1.7025449280
2.7544646260	6.2861776350	7.5036168100
6.2550034520	0.4916719790	4.0985264780
1.7502694130	2.8972527980	1.7025449280
6.2550034520	2.8972527980	4.0985264780
2.7544646260	3.8805968760	7.5036168100
10.7597379680	0.4916719790	1.7025449280
7.2591986660	6.2861776350	9.8995981220
11.7639322280	6.2861776350	7.5036168100
7.2591986660	3.8805968760	9.8995981220
10.7597379680	2.8972527980	1.7025449280
11.7639322280	3.8805968760	7.5036168100
0.7469299440	5.0833873750	6.8684806820
3.7578041550	1.6944624190	1.0674083230
5.2516641620	5.0833873750	10.5347347260
9.7563982010	5.0833873750	6.8684806820
8.2625379560	1.6944624190	4.7336626050
12.7672719960	1.6944624190	1.0674083230
1.7811177970	1.6944624190	11.2185764310
2.7236161230	5.0833873750	5.4175038340
6.2858519550	1.6944624190	6.1846385000
10.7905864720	1.6944624190	11.2185764310
7.2283501630	5.0833873750	0.3835670350
11.7330837250	5.0833873750	5.4175038340
		
		
		
		
		
		
		
		
		
		
		
		
