ba8 si16                                
   1.00000000000000     
    24.0094680786000012    0.0000000000000000    0.0000000000000000
     0.0000000000000000    6.7778496741999996    0.0000000000000000
     0.0000000000000000    0.0000000000000000   11.6021432877000006
   Ba   Si
     8    16
Selective dynamics
Direct
  0.0056936146836932  0.2500000000663931  0.7054911389050059   F   T   T
  0.3695528538555379  0.7500000176088264  0.2945088611208512   F   T   T
  0.1819296202106742  0.7500000176088264  0.1880189574885898   F   T   T
  0.1933168470790463  0.2500000000663931  0.8119810219376243   F   T   T
  0.0597801408303269  0.7500000176088264  0.9187993996143082   F   T   T
  0.3154663265010456  0.2500000000663931  0.0812005798119056   F   T   T
  0.1278430928145298  0.2500000000663931  0.4001430133871058   F   T   T
  0.2474033744751907  0.7500000176088264  0.5998570277518408   F   T   T
  0.0728991332615152  0.0717551830853534  0.1470129161858032   F   T   T
  0.3023473340698573  0.9282448080327699  0.8529870633266065   F   T   T
  0.1147241003833415  0.9287185846805199  0.6565433551894501   F   T   T
  0.2605223669063790  0.0712814064376033  0.3434566448364062   F   T   T
  0.3023473340698573  0.5717551919229633  0.8529870633266065   F   T   T
  0.0728991332615152  0.4282448080475281  0.1470129161858032   F   T   T
  0.2605223669063790  0.4287185846952783  0.3434566448364062   F   T   T
  0.1147241003833415  0.5712814152752133  0.6565433551894501   F   T   T
  0.0311098080788312  0.7500000176088264  0.5970727467751209   F   T   T
  0.3441366517971503  0.2500000000663931  0.4029272531645469   F   T   T
  0.1565134280650469  0.2500000000663931  0.0866096348019231   F   T   T
  0.2187330491790789  0.7500000176088264  0.9133903446242906   F   T   T
  0.0741839757202953  0.2500000000663931  0.9642138282272151   F   T   T
  0.3010624866547005  0.7500000176088264  0.0357861871406303   F   T   T
  0.1134392529681918  0.7500000176088264  0.4737888689817288   F   T   T
  0.2618072143215286  0.2500000000663931  0.5262110488179407   F   T   T
 
  0.00000000E+00  0.00000000E+00  0.00000000E+00
  0.00000000E+00  0.00000000E+00  0.00000000E+00
  0.00000000E+00  0.00000000E+00  0.00000000E+00
  0.00000000E+00  0.00000000E+00  0.00000000E+00
  0.00000000E+00  0.00000000E+00  0.00000000E+00
  0.00000000E+00  0.00000000E+00  0.00000000E+00
  0.00000000E+00  0.00000000E+00  0.00000000E+00
  0.00000000E+00  0.00000000E+00  0.00000000E+00
  0.00000000E+00  0.00000000E+00  0.00000000E+00
  0.00000000E+00  0.00000000E+00  0.00000000E+00
  0.00000000E+00  0.00000000E+00  0.00000000E+00
  0.00000000E+00  0.00000000E+00  0.00000000E+00
  0.00000000E+00  0.00000000E+00  0.00000000E+00
  0.00000000E+00  0.00000000E+00  0.00000000E+00
  0.00000000E+00  0.00000000E+00  0.00000000E+00
  0.00000000E+00  0.00000000E+00  0.00000000E+00
  0.00000000E+00  0.00000000E+00  0.00000000E+00
  0.00000000E+00  0.00000000E+00  0.00000000E+00
  0.00000000E+00  0.00000000E+00  0.00000000E+00
  0.00000000E+00  0.00000000E+00  0.00000000E+00
  0.00000000E+00  0.00000000E+00  0.00000000E+00
  0.00000000E+00  0.00000000E+00  0.00000000E+00
  0.00000000E+00  0.00000000E+00  0.00000000E+00
  0.00000000E+00  0.00000000E+00  0.00000000E+00
