ba8 si16                                
   1.00000000000000     
    23.7719122844365067    0.0000000000000000    0.0000000000000000
     0.0000000000000000    6.6025452889951719    0.0000000000000000
     0.0000000000000000    0.0000000000000000   11.2943054033514318
   Ba   Si
     8    16
Selective dynamics
Direct
  0.0149799417526140  0.2500000000663931  0.6081816140389548   F   T   T
  0.9850200615106175  0.7500000176088264  0.3918183859869031   F   T   T
  0.4850200615439135  0.7500000176088264  0.1081815523132890   F   T   T
  0.5149799383894873  0.2500000000663931  0.8918184271129236   F   T   T
  0.1587429960406936  0.7500000176088264  0.8135207718228431   F   T   T
  0.8412570040037082  0.2500000000663931  0.1864792076033704   F   T   T
  0.3412570039260103  0.2500000000663931  0.3135208540360982   F   T   T
  0.6587429960073905  0.7500000176088264  0.6864791871028485   F   T   T
  0.1932912398688700  0.0792147674067506  0.0146758170155356   F   T   T
  0.8067087601755247  0.9207852237113734  0.9853241624968745   F   T   T
  0.3067087600978269  0.9207852237113734  0.5146758375419140   F   T   T
  0.6932912398355739  0.0792147674067506  0.4853241624839423   F   T   T
  0.8067087601755247  0.5792147762443598  0.9853241624968745   F   T   T
  0.1932912398688700  0.4207852237261310  0.0146758170155356   F   T   T
  0.6932912398355739  0.4207852237261310  0.4853241624839423   F   T   T
  0.3067087600978269  0.5792147762443597  0.5146758375419140   F   T   T
  0.0812254206297212  0.7500000176088264  0.5840968925619066   F   T   T
  0.9187745595466907  0.2500000000663931  0.4159031073777610   F   T   T
  0.4187745859966441  0.2500000000663931  0.0840968309224311   F   T   T
  0.5812254404644079  0.7500000176088264  0.9159031485037830   F   T   T
  0.1969819606311773  0.2500000000663931  0.8349861405323936   F   T   T
  0.8030180262048958  0.7500000176088264  0.1650138748354523   F   T   T
  0.3030180261271980  0.7500000176088264  0.3349860583794707   F   T   T
  0.6969819738062029  0.2500000000663931  0.6650138594201990   F   T   T
 
  0.00000000E+00  0.00000000E+00  0.00000000E+00
  0.00000000E+00  0.00000000E+00  0.00000000E+00
  0.00000000E+00  0.00000000E+00  0.00000000E+00
  0.00000000E+00  0.00000000E+00  0.00000000E+00
  0.00000000E+00  0.00000000E+00  0.00000000E+00
  0.00000000E+00  0.00000000E+00  0.00000000E+00
  0.00000000E+00  0.00000000E+00  0.00000000E+00
  0.00000000E+00  0.00000000E+00  0.00000000E+00
  0.00000000E+00  0.00000000E+00  0.00000000E+00
  0.00000000E+00  0.00000000E+00  0.00000000E+00
  0.00000000E+00  0.00000000E+00  0.00000000E+00
  0.00000000E+00  0.00000000E+00  0.00000000E+00
  0.00000000E+00  0.00000000E+00  0.00000000E+00
  0.00000000E+00  0.00000000E+00  0.00000000E+00
  0.00000000E+00  0.00000000E+00  0.00000000E+00
  0.00000000E+00  0.00000000E+00  0.00000000E+00
  0.00000000E+00  0.00000000E+00  0.00000000E+00
  0.00000000E+00  0.00000000E+00  0.00000000E+00
  0.00000000E+00  0.00000000E+00  0.00000000E+00
  0.00000000E+00  0.00000000E+00  0.00000000E+00
  0.00000000E+00  0.00000000E+00  0.00000000E+00
  0.00000000E+00  0.00000000E+00  0.00000000E+00
  0.00000000E+00  0.00000000E+00  0.00000000E+00
  0.00000000E+00  0.00000000E+00  0.00000000E+00
