ba8 si16                                
   1.00000000000000     
    24.0094680786000012    0.0000000000000000    0.0000000000000000
     0.0000000000000000    6.7778496741999996    0.0000000000000000
     0.0000000000000000    0.0000000000000000   11.6021432877000006
   Ba   Si
     8    16
Selective dynamics
Direct
  0.0056936146836932  0.2500000000663931  0.7103410232001900   F   T   T
  0.3695528538555379  0.7500000176088264  0.2896589768256669   F   T   T
  0.1819296202106742  0.7500000176088264  0.1856469034469163   F   T   T
  0.1933168470790463  0.2500000000663931  0.8143530759792977   F   T   T
  0.0597801408303269  0.7500000176088264  0.9196766187058447   F   T   T
  0.3154663265010456  0.2500000000663931  0.0803233607203692   F   T   T
  0.1278430928145298  0.2500000000663931  0.3961486247082706   F   T   T
  0.2474033744751907  0.7500000176088264  0.6038514164306761   F   T   T
  0.0728991332615152  0.0739275634156510  0.1444111626395877   F   T   T
  0.3023473340698573  0.9260724277024721  0.8555888168728218   F   T   T
  0.1147241003833415  0.9268464283344422  0.6629140307243805   F   T   T
  0.2605223669063790  0.0731535627836816  0.3370859693014764   F   T   T
  0.3023473340698573  0.5739275722532611  0.8555888168728218   F   T   T
  0.0728991332615152  0.4260724277172305  0.1444111626395877   F   T   T
  0.2605223669063790  0.4268464283491998  0.3370859693014764   F   T   T
  0.1147241003833415  0.5731535716212910  0.6629140307243805   F   T   T
  0.0311098080788312  0.7500000176088264  0.6063781611503665   F   T   T
  0.3441366517971503  0.2500000000663931  0.3936218387893019   F   T   T
  0.1565134280650469  0.2500000000663931  0.0855023514691746   F   T   T
  0.2187330491790789  0.7500000176088264  0.9144976279570395   F   T   T
  0.0741839757202953  0.2500000000663931  0.9640733754629562   F   T   T
  0.3010624866547005  0.7500000176088264  0.0359266399048894   F   T   T
  0.1134392529681918  0.7500000176088264  0.4821585727623959   F   T   T
  0.2618072143215286  0.2500000000663931  0.5178413450372742   F   T   T
 
  0.00000000E+00  0.00000000E+00  0.00000000E+00
  0.00000000E+00  0.00000000E+00  0.00000000E+00
  0.00000000E+00  0.00000000E+00  0.00000000E+00
  0.00000000E+00  0.00000000E+00  0.00000000E+00
  0.00000000E+00  0.00000000E+00  0.00000000E+00
  0.00000000E+00  0.00000000E+00  0.00000000E+00
  0.00000000E+00  0.00000000E+00  0.00000000E+00
  0.00000000E+00  0.00000000E+00  0.00000000E+00
  0.00000000E+00  0.00000000E+00  0.00000000E+00
  0.00000000E+00  0.00000000E+00  0.00000000E+00
  0.00000000E+00  0.00000000E+00  0.00000000E+00
  0.00000000E+00  0.00000000E+00  0.00000000E+00
  0.00000000E+00  0.00000000E+00  0.00000000E+00
  0.00000000E+00  0.00000000E+00  0.00000000E+00
  0.00000000E+00  0.00000000E+00  0.00000000E+00
  0.00000000E+00  0.00000000E+00  0.00000000E+00
  0.00000000E+00  0.00000000E+00  0.00000000E+00
  0.00000000E+00  0.00000000E+00  0.00000000E+00
  0.00000000E+00  0.00000000E+00  0.00000000E+00
  0.00000000E+00  0.00000000E+00  0.00000000E+00
  0.00000000E+00  0.00000000E+00  0.00000000E+00
  0.00000000E+00  0.00000000E+00  0.00000000E+00
  0.00000000E+00  0.00000000E+00  0.00000000E+00
  0.00000000E+00  0.00000000E+00  0.00000000E+00
