ba8 si16                                
   1.00000000000000     
    99.6570443261646801    0.0000000000000000    0.0000000000000000
     0.0000000000000000    6.7050034838939849    0.0000000000000000
     0.0000000000000000    0.0000000000000000   11.4790560032135183
   Ba   Si
    76   152
Direct
  0.0032753633753307  0.2500000000663931  0.7012056167537244
  0.0910985526706105  0.2500000000663931  0.6907405845620925
  0.1805608593935342  0.2500000000663931  0.6915962958443952
  0.2701155412428309  0.2500000000663931  0.6915382957779784
  0.3596923603827025  0.2500000000663931  0.6914485810145249
  0.4492548225574990  0.2500000000663931  0.6914555342929168
  0.5388051754663590  0.2500000000663931  0.6914613989956393
  0.6283937296422616  0.2500000000663931  0.6916170879459359
  0.7179715434127997  0.2500000000663931  0.6914348196765142
  0.8085460605447272  0.2500000000663931  0.6928699317617640
  0.0881314393113689  0.7500000176088264  0.3081239184294708
  0.1777089596718434  0.7500000176088264  0.3084476433760547
  0.2672780944420244  0.7500000176088264  0.3083030204744887
  0.3568344129260553  0.7500000176088264  0.3084375075912909
  0.4464116129447417  0.7500000176088264  0.3083901579976810
  0.5359697366586281  0.7500000176088264  0.3083229446876327
  0.6255422958926606  0.7500000176088264  0.3085357318013950
  0.7151362045406567  0.7500000176088264  0.3086164629070975
  0.8044364167849124  0.7500000176088264  0.3082477490250748
  0.0423336222275749  0.7500000176088264  0.1928698700360998
  0.1329082246861212  0.7500000176088264  0.1914347579508496
  0.2224860005403435  0.7500000176088264  0.1916170262202714
  0.3120746116006630  0.7500000176088264  0.1914613372699747
  0.4016249076251060  0.7500000176088264  0.1914554725672522
  0.4911873697999025  0.7500000176088264  0.1914485192888605
  0.5807642458241913  0.7500000176088264  0.1915382340523140
  0.6703188707890784  0.7500000176088264  0.1915962341187304
  0.7597811869960488  0.7500000176088264  0.1907405228364278
  0.8476043765796246  0.7500000176088264  0.2012055550280599
  0.0464432849455507  0.2500000000663931  0.8082477901510960
  0.1357434971997398  0.2500000000663931  0.8086165040331194
  0.2253374722062594  0.2500000000663931  0.8085357729274166
  0.3149100124821383  0.2500000000663931  0.8083229858136545
  0.4044681551641192  0.2500000000663931  0.8083901991237030
  0.4940453172565497  0.2500000000663931  0.8084375487173129
  0.5836016736568961  0.2500000000663931  0.8083030616005104
  0.6731707515426669  0.2500000000663931  0.8084476845020766
  0.7627482813871888  0.2500000000663931  0.8081239595554925
  0.0191025000288413  0.7500000176088264  0.9121476247865501
  0.1041737985146643  0.7500000176088264  0.9061303961508637
  0.1935382310783243  0.7500000176088264  0.9060600721719695
  0.2831036356984982  0.7500000176088264  0.9057711235433803
  0.3726959411474405  0.7500000176088264  0.9059881019293660
  0.4622323103300819  0.7500000176088264  0.9059219276223158
  0.5518151717610459  0.7500000176088264  0.9058680685239301
  0.6413828800267583  0.7500000176088264  0.9060508552644673
  0.7308974097853601  0.7500000176088264  0.9052249976419058
  0.8199432506600184  0.7500000176088264  0.8954941124290180
  0.0747790456074933  0.2500000000663931  0.0929858313881930
  0.1647143721514428  0.2500000000663931  0.0940751092996098
  0.2543055641035187  0.2500000000663931  0.0940701158548533
  0.3438587141246536  0.2500000000663931  0.0939827296552231
  0.4334336270708885  0.2500000000663931  0.0939930747717035
  0.5229967291277245  0.2500000000663931  0.0939660312310801
  0.6125446353227821  0.2500000000663931  0.0940212197563273
  0.7021016097377416  0.2500000000663931  0.0938711969597331
  0.7914908484615022  0.2500000000663931  0.0952271404788254
  0.0309364605544919  0.2500000000663931  0.3954941946422729
  0.1199823014291428  0.2500000000663931  0.4052250798551606
  0.2094968311976922  0.2500000000663931  0.4060509374777224
  0.2990645773797207  0.2500000000663931  0.4058681507371847
  0.3886473819262671  0.2500000000663931  0.4059220098355707
  0.4781837890351645  0.2500000000663931  0.4059881841426209
  0.5677761513685168  0.2500000000663931  0.4057712057566356
  0.6573414801361793  0.2500000000663931  0.4060601543852245
  0.7467059885523577  0.2500000000663931  0.4061304783641188
  0.8317772111956094  0.2500000000663931  0.4121477069998048
  0.0593889006792643  0.7500000176088264  0.5952271199783035
  0.1487780635604533  0.7500000176088264  0.5938711764592109
  0.2383350758917284  0.7500000176088264  0.5940211992558048
  0.3278830010449401  0.7500000176088264  0.5939660107305580
  0.4174461410280319  0.7500000176088264  0.5939930542711809
  0.5070210539842146  0.7500000176088264  0.5939827091547005
  0.5965741850372402  0.7500000176088264  0.5940700953543314
  0.6861653769893233  0.7500000176088264  0.5940750887990879
  0.7761006987912459  0.7500000176088264  0.5929858108876712
  0.0162416890224431  0.0716036376750389  0.1450831096335773
  0.1066735731109564  0.0704203813775429  0.1461009823908384
  0.1963468442444868  0.0703669057107646  0.1462396561203588
  0.2859361196378109  0.0703047435585285  0.1459079566859501
  0.3754752333013777  0.0703672764329877  0.1462095729072256
  0.4650625416352731  0.0703626228759307  0.1460774915858836
  0.5546268757642351  0.0703323848644226  0.1459217893474922
  0.6441767739460524  0.0703666354233969  0.1462825197813076
  0.7337103407722892  0.0703283100076267  0.1454088362773492
  0.8230807753737129  0.0715745569825918  0.1424143172612645
  0.0728202541749250  0.9299706303894235  0.8542204110834861
  0.1619132237212183  0.9296892797607748  0.8538375488646225
  0.2514722834923358  0.9296518714746179  0.8539595918061543
  0.3410629867241883  0.9296428207103631  0.8536840849988572
  0.4306220148681630  0.9296775101100027  0.8538073058100171
  0.5201800153487004  0.9296092093864369  0.8537833140922199
  0.6097543301370576  0.9296422714822871  0.8538125619368815
  0.6993040070494847  0.9296563488880366  0.8539005932181327
  0.7889476623344104  0.9302995612443461  0.8532195476401889
  0.0277989310987700  0.9284254341355316  0.6424143377876432
  0.1171693704521542  0.9296716811104968  0.6454088568037277
  0.2067029372684581  0.9296333556947266  0.6462825403076868
  0.2962528923346852  0.9296676062537008  0.6459218098738710
  0.3858172264735878  0.9296373682421925  0.6460775121122622
  0.4754045348074832  0.9296327146851358  0.6462095934336044
  0.5649436484611087  0.9296952475595950  0.6459079772123286
  0.6545328669700238  0.9296330854073586  0.6462396766467376
  0.7442061475876013  0.9295796097405803  0.6461010029172174
  0.8346380257510693  0.9283963534430846  0.6450831301599560
  0.0619320915483834  0.0697004298737775  0.3532195476272576
  0.1515757515753284  0.0703436422300865  0.3539005932052008
  0.2411254190037090  0.0703577196358366  0.3538125619239499
  0.3306997527601608  0.0703907817316862  0.3537833140792882
  0.4202576773981337  0.0703224810081209  0.3538073057970855
  0.5098167434584172  0.0703571704077604  0.3536840849859252
  0.5994074656484303  0.0703481196435054  0.3539595917932220
  0.6889665254195473  0.0703107113573486  0.3538375488516907
  0.7780594902337544  0.0700293607286995  0.3542204110705544
  0.0728202541749250  0.5700293695663097  0.8542204110834861
  0.1619132237212183  0.5703107201949584  0.8538375488646225
  0.2514722834923358  0.5703481284811153  0.8539595918061543
  0.3410629867241883  0.5703571792453701  0.8536840849988572
  0.4306220148681630  0.5703224898457305  0.8538073058100171
  0.5201800153487004  0.5703907905692963  0.8537833140922199
  0.6097543301370576  0.5703577284734461  0.8538125619368815
  0.6993040070494847  0.5703436510676966  0.8539005932181327
  0.7889476623344104  0.5697004387113871  0.8532195476401889
  0.0162416890224431  0.4283963534578423  0.1450831096335773
  0.1066735731109564  0.4295796097553385  0.1461009823908384
  0.1963468442444868  0.4296330854221169  0.1462396561203588
  0.2859361196378109  0.4296952475743527  0.1459079566859501
  0.3754752333013777  0.4296327146998938  0.1462095729072256
  0.4650625416352731  0.4296373682569508  0.1460774915858836
  0.5546268757642351  0.4296676062684588  0.1459217893474922
  0.6441767739460524  0.4296333557094844  0.1462825197813076
  0.7337103407722892  0.4296716811252548  0.1454088362773492
  0.8230807753737129  0.4284254341502897  0.1424143172612645
  0.0619320915483834  0.4302995612591037  0.3532195476272576
  0.1515757515753284  0.4296563489027949  0.3539005932052008
  0.2411254190037090  0.4296422714970449  0.3538125619239499
  0.3306997527601608  0.4296092094011953  0.3537833140792882
  0.4202576773981337  0.4296775101247605  0.3538073057970855
  0.5098167434584172  0.4296428207251211  0.3536840849859252
  0.5994074656484303  0.4296518714893759  0.3539595917932220
  0.6889665254195473  0.4296892797755332  0.3538375488516907
  0.7780594902337544  0.4299706304041819  0.3542204110705544
  0.0277989310987700  0.5715745658202016  0.6424143377876432
  0.1171693704521542  0.5703283188452364  0.6454088568037277
  0.2067029372684581  0.5703666442610066  0.6462825403076868
  0.2962528923346852  0.5703323937020324  0.6459218098738710
  0.3858172264735878  0.5703626317135407  0.6460775121122622
  0.4754045348074832  0.5703672852705974  0.6462095934336044
  0.5649436484611087  0.5703047523961382  0.6459079772123286
  0.6545328669700238  0.5703669145483746  0.6462396766467376
  0.7442061475876013  0.5704203902151529  0.6461010029172174
  0.8346380257510693  0.5716036465126486  0.6450831301599560
  0.0065898890370848  0.7500000176088264  0.6182930705712434
  0.0970231538325233  0.7500000176088264  0.5911439808523886
  0.1865590868565039  0.7500000176088264  0.5914961095462526
  0.2761019014315617  0.7500000176088264  0.5912722170487481
  0.3656718761674025  0.7500000176088264  0.5913891871233169
  0.4552605640700098  0.7500000176088264  0.5914524617934122
  0.5447900113243651  0.7500000176088264  0.5913488517801455
  0.6343924862842331  0.7500000176088264  0.5914359011365635
  0.7240344771670881  0.7500000176088264  0.5916162890052313
  0.8140977286589869  0.7500000176088264  0.5825257307724794
  0.0820173352620086  0.2500000000663931  0.4080647598949783
  0.1717194354709317  0.2500000000663931  0.4086316598692220
  0.2612690411289544  0.2500000000663931  0.4085720854052086
  0.3508511910409170  0.2500000000663931  0.4084746146902389
  0.4404014877379564  0.2500000000663931  0.4084496965680113
  0.5299550400253206  0.2500000000663931  0.4085549416665006
  0.6195634725150616  0.2500000000663931  0.4085079947849641
  0.7091024241270850  0.2500000000663931  0.4085663121628840
  0.7980578273284521  0.2500000000663931  0.4090624599938609
  0.0367820323318630  0.2500000000663931  0.0825256691330035
  0.1268452909318319  0.2500000000663931  0.0916162273657556
  0.2164872818246348  0.2500000000663931  0.0914358394970878
  0.3060897757426570  0.2500000000663931  0.0913487901406695
  0.3956192040289107  0.2500000000663931  0.0914524001539364
  0.4852078160889465  0.2500000000663931  0.0913891254838410
  0.5747778477092044  0.2500000000663931  0.0912721554092722
  0.6643206622842551  0.2500000000663931  0.0914960479067766
  0.7538565858341293  0.2500000000663931  0.0911439192129127
  0.8442897735940379  0.2500000000663931  0.1182930089317676
  0.0528218744119514  0.7500000176088264  0.9090625011198828
  0.1417772776133185  0.7500000176088264  0.9085663532889060
  0.2313162576675434  0.7500000176088264  0.9085080359109856
  0.3209247280835403  0.7500000176088264  0.9085549827925224
  0.4104782803609640  0.7500000176088264  0.9084497376940329
  0.5000285391416945  0.7500000176088264  0.9084746558162606
  0.5896106890536508  0.7500000176088264  0.9085721265312301
  0.6791602947116733  0.7500000176088264  0.9086317009952434
  0.7688623854365491  0.7500000176088264  0.9080648010209997
  0.0164109618875326  0.2500000000663931  0.9625720224002948
  0.1070405986653702  0.2500000000663931  0.9644532467792238
  0.1966620236195241  0.2500000000663931  0.9644957144695906
  0.2862828020890930  0.2500000000663931  0.9642342632586646
  0.3758143799564646  0.2500000000663931  0.9644785618391162
  0.4653859516540331  0.2500000000663931  0.9643545690147912
  0.5549641464993670  0.2500000000663931  0.9642441525447224
  0.6445067958415391  0.2500000000663931  0.9645484428657495
  0.7340627019146007  0.2500000000663931  0.9637324398893635
  0.8276622805851036  0.2500000000663931  0.9622716715690284
  0.0721575434233801  0.7500000176088264  0.0367229189922422
  0.1615826095857903  0.7500000176088264  0.0355352788190511
  0.2511190848671456  0.7500000176088264  0.0356728608967423
  0.3407495225573264  0.7500000176088264  0.0354373911921279
  0.4302894919584980  0.7500000176088264  0.0354863980919884
  0.5198401632582975  0.7500000176088264  0.0355181943935072
  0.6094331560105218  0.7500000176088264  0.0355507285900139
  0.6989733752686921  0.7500000176088264  0.0356298693859575
  0.7886154179872413  0.7500000176088264  0.0352061376517667
  0.0232174756736664  0.7500000176088264  0.4622715894161054
  0.1168169808676414  0.7500000176088264  0.4637323577364406
  0.2063728774566558  0.7500000176088264  0.4645483607128273
  0.2959156595357503  0.7500000176088264  0.4642440703917998
  0.3854938164448873  0.7500000176088264  0.4643544868618686
  0.4750653122998916  0.7500000176088264  0.4644784796861938
  0.5645969470516660  0.7500000176088264  0.4642341811057420
  0.6542176496786706  0.7500000176088264  0.4644956323166680
  0.7438391504853364  0.7500000176088264  0.4644531646263009
  0.8344687054856172  0.7500000176088264  0.4625719402473722
  0.0622642837531551  0.2500000000663931  0.5352061222365135
  0.1519063359557588  0.2500000000663931  0.5356298539707044
  0.2414465931302441  0.2500000000663931  0.5355507131747609
  0.3310395669243077  0.2500000000663931  0.5355181789782542
  0.4205902761404224  0.2500000000663931  0.5354863826767351
  0.5101302076252777  0.2500000000663931  0.5354373757768748
  0.5997606453154665  0.2500000000663931  0.5356728454814887
  0.6892971016287130  0.2500000000663931  0.5355352634037978
  0.7787221725430906  0.2500000000663931  0.5367229035769888
 
  0.00000000E+00  0.00000000E+00  0.00000000E+00
  0.00000000E+00  0.00000000E+00  0.00000000E+00
  0.00000000E+00  0.00000000E+00  0.00000000E+00
  0.00000000E+00  0.00000000E+00  0.00000000E+00
  0.00000000E+00  0.00000000E+00  0.00000000E+00
  0.00000000E+00  0.00000000E+00  0.00000000E+00
  0.00000000E+00  0.00000000E+00  0.00000000E+00
  0.00000000E+00  0.00000000E+00  0.00000000E+00
  0.00000000E+00  0.00000000E+00  0.00000000E+00
  0.00000000E+00  0.00000000E+00  0.00000000E+00
  0.00000000E+00  0.00000000E+00  0.00000000E+00
  0.00000000E+00  0.00000000E+00  0.00000000E+00
  0.00000000E+00  0.00000000E+00  0.00000000E+00
  0.00000000E+00  0.00000000E+00  0.00000000E+00
  0.00000000E+00  0.00000000E+00  0.00000000E+00
  0.00000000E+00  0.00000000E+00  0.00000000E+00
  0.00000000E+00  0.00000000E+00  0.00000000E+00
  0.00000000E+00  0.00000000E+00  0.00000000E+00
  0.00000000E+00  0.00000000E+00  0.00000000E+00
  0.00000000E+00  0.00000000E+00  0.00000000E+00
  0.00000000E+00  0.00000000E+00  0.00000000E+00
  0.00000000E+00  0.00000000E+00  0.00000000E+00
  0.00000000E+00  0.00000000E+00  0.00000000E+00
  0.00000000E+00  0.00000000E+00  0.00000000E+00
  0.00000000E+00  0.00000000E+00  0.00000000E+00
  0.00000000E+00  0.00000000E+00  0.00000000E+00
  0.00000000E+00  0.00000000E+00  0.00000000E+00
  0.00000000E+00  0.00000000E+00  0.00000000E+00
  0.00000000E+00  0.00000000E+00  0.00000000E+00
  0.00000000E+00  0.00000000E+00  0.00000000E+00
  0.00000000E+00  0.00000000E+00  0.00000000E+00
  0.00000000E+00  0.00000000E+00  0.00000000E+00
  0.00000000E+00  0.00000000E+00  0.00000000E+00
  0.00000000E+00  0.00000000E+00  0.00000000E+00
  0.00000000E+00  0.00000000E+00  0.00000000E+00
  0.00000000E+00  0.00000000E+00  0.00000000E+00
  0.00000000E+00  0.00000000E+00  0.00000000E+00
  0.00000000E+00  0.00000000E+00  0.00000000E+00
  0.00000000E+00  0.00000000E+00  0.00000000E+00
  0.00000000E+00  0.00000000E+00  0.00000000E+00
  0.00000000E+00  0.00000000E+00  0.00000000E+00
  0.00000000E+00  0.00000000E+00  0.00000000E+00
  0.00000000E+00  0.00000000E+00  0.00000000E+00
  0.00000000E+00  0.00000000E+00  0.00000000E+00
  0.00000000E+00  0.00000000E+00  0.00000000E+00
  0.00000000E+00  0.00000000E+00  0.00000000E+00
  0.00000000E+00  0.00000000E+00  0.00000000E+00
  0.00000000E+00  0.00000000E+00  0.00000000E+00
  0.00000000E+00  0.00000000E+00  0.00000000E+00
  0.00000000E+00  0.00000000E+00  0.00000000E+00
  0.00000000E+00  0.00000000E+00  0.00000000E+00
  0.00000000E+00  0.00000000E+00  0.00000000E+00
  0.00000000E+00  0.00000000E+00  0.00000000E+00
  0.00000000E+00  0.00000000E+00  0.00000000E+00
  0.00000000E+00  0.00000000E+00  0.00000000E+00
  0.00000000E+00  0.00000000E+00  0.00000000E+00
  0.00000000E+00  0.00000000E+00  0.00000000E+00
  0.00000000E+00  0.00000000E+00  0.00000000E+00
  0.00000000E+00  0.00000000E+00  0.00000000E+00
  0.00000000E+00  0.00000000E+00  0.00000000E+00
  0.00000000E+00  0.00000000E+00  0.00000000E+00
  0.00000000E+00  0.00000000E+00  0.00000000E+00
  0.00000000E+00  0.00000000E+00  0.00000000E+00
  0.00000000E+00  0.00000000E+00  0.00000000E+00
  0.00000000E+00  0.00000000E+00  0.00000000E+00
  0.00000000E+00  0.00000000E+00  0.00000000E+00
  0.00000000E+00  0.00000000E+00  0.00000000E+00
  0.00000000E+00  0.00000000E+00  0.00000000E+00
  0.00000000E+00  0.00000000E+00  0.00000000E+00
  0.00000000E+00  0.00000000E+00  0.00000000E+00
  0.00000000E+00  0.00000000E+00  0.00000000E+00
  0.00000000E+00  0.00000000E+00  0.00000000E+00
  0.00000000E+00  0.00000000E+00  0.00000000E+00
  0.00000000E+00  0.00000000E+00  0.00000000E+00
  0.00000000E+00  0.00000000E+00  0.00000000E+00
  0.00000000E+00  0.00000000E+00  0.00000000E+00
  0.00000000E+00  0.00000000E+00  0.00000000E+00
  0.00000000E+00  0.00000000E+00  0.00000000E+00
  0.00000000E+00  0.00000000E+00  0.00000000E+00
  0.00000000E+00  0.00000000E+00  0.00000000E+00
  0.00000000E+00  0.00000000E+00  0.00000000E+00
  0.00000000E+00  0.00000000E+00  0.00000000E+00
  0.00000000E+00  0.00000000E+00  0.00000000E+00
  0.00000000E+00  0.00000000E+00  0.00000000E+00
  0.00000000E+00  0.00000000E+00  0.00000000E+00
  0.00000000E+00  0.00000000E+00  0.00000000E+00
  0.00000000E+00  0.00000000E+00  0.00000000E+00
  0.00000000E+00  0.00000000E+00  0.00000000E+00
  0.00000000E+00  0.00000000E+00  0.00000000E+00
  0.00000000E+00  0.00000000E+00  0.00000000E+00
  0.00000000E+00  0.00000000E+00  0.00000000E+00
  0.00000000E+00  0.00000000E+00  0.00000000E+00
  0.00000000E+00  0.00000000E+00  0.00000000E+00
  0.00000000E+00  0.00000000E+00  0.00000000E+00
  0.00000000E+00  0.00000000E+00  0.00000000E+00
  0.00000000E+00  0.00000000E+00  0.00000000E+00
  0.00000000E+00  0.00000000E+00  0.00000000E+00
  0.00000000E+00  0.00000000E+00  0.00000000E+00
  0.00000000E+00  0.00000000E+00  0.00000000E+00
  0.00000000E+00  0.00000000E+00  0.00000000E+00
  0.00000000E+00  0.00000000E+00  0.00000000E+00
  0.00000000E+00  0.00000000E+00  0.00000000E+00
  0.00000000E+00  0.00000000E+00  0.00000000E+00
  0.00000000E+00  0.00000000E+00  0.00000000E+00
  0.00000000E+00  0.00000000E+00  0.00000000E+00
  0.00000000E+00  0.00000000E+00  0.00000000E+00
  0.00000000E+00  0.00000000E+00  0.00000000E+00
  0.00000000E+00  0.00000000E+00  0.00000000E+00
  0.00000000E+00  0.00000000E+00  0.00000000E+00
  0.00000000E+00  0.00000000E+00  0.00000000E+00
  0.00000000E+00  0.00000000E+00  0.00000000E+00
  0.00000000E+00  0.00000000E+00  0.00000000E+00
  0.00000000E+00  0.00000000E+00  0.00000000E+00
  0.00000000E+00  0.00000000E+00  0.00000000E+00
  0.00000000E+00  0.00000000E+00  0.00000000E+00
  0.00000000E+00  0.00000000E+00  0.00000000E+00
  0.00000000E+00  0.00000000E+00  0.00000000E+00
  0.00000000E+00  0.00000000E+00  0.00000000E+00
  0.00000000E+00  0.00000000E+00  0.00000000E+00
  0.00000000E+00  0.00000000E+00  0.00000000E+00
  0.00000000E+00  0.00000000E+00  0.00000000E+00
  0.00000000E+00  0.00000000E+00  0.00000000E+00
  0.00000000E+00  0.00000000E+00  0.00000000E+00
  0.00000000E+00  0.00000000E+00  0.00000000E+00
  0.00000000E+00  0.00000000E+00  0.00000000E+00
  0.00000000E+00  0.00000000E+00  0.00000000E+00
  0.00000000E+00  0.00000000E+00  0.00000000E+00
  0.00000000E+00  0.00000000E+00  0.00000000E+00
  0.00000000E+00  0.00000000E+00  0.00000000E+00
  0.00000000E+00  0.00000000E+00  0.00000000E+00
  0.00000000E+00  0.00000000E+00  0.00000000E+00
  0.00000000E+00  0.00000000E+00  0.00000000E+00
  0.00000000E+00  0.00000000E+00  0.00000000E+00
  0.00000000E+00  0.00000000E+00  0.00000000E+00
  0.00000000E+00  0.00000000E+00  0.00000000E+00
  0.00000000E+00  0.00000000E+00  0.00000000E+00
  0.00000000E+00  0.00000000E+00  0.00000000E+00
  0.00000000E+00  0.00000000E+00  0.00000000E+00
  0.00000000E+00  0.00000000E+00  0.00000000E+00
  0.00000000E+00  0.00000000E+00  0.00000000E+00
  0.00000000E+00  0.00000000E+00  0.00000000E+00
  0.00000000E+00  0.00000000E+00  0.00000000E+00
  0.00000000E+00  0.00000000E+00  0.00000000E+00
  0.00000000E+00  0.00000000E+00  0.00000000E+00
  0.00000000E+00  0.00000000E+00  0.00000000E+00
  0.00000000E+00  0.00000000E+00  0.00000000E+00
  0.00000000E+00  0.00000000E+00  0.00000000E+00
  0.00000000E+00  0.00000000E+00  0.00000000E+00
  0.00000000E+00  0.00000000E+00  0.00000000E+00
  0.00000000E+00  0.00000000E+00  0.00000000E+00
  0.00000000E+00  0.00000000E+00  0.00000000E+00
  0.00000000E+00  0.00000000E+00  0.00000000E+00
  0.00000000E+00  0.00000000E+00  0.00000000E+00
  0.00000000E+00  0.00000000E+00  0.00000000E+00
  0.00000000E+00  0.00000000E+00  0.00000000E+00
  0.00000000E+00  0.00000000E+00  0.00000000E+00
  0.00000000E+00  0.00000000E+00  0.00000000E+00
  0.00000000E+00  0.00000000E+00  0.00000000E+00
  0.00000000E+00  0.00000000E+00  0.00000000E+00
  0.00000000E+00  0.00000000E+00  0.00000000E+00
  0.00000000E+00  0.00000000E+00  0.00000000E+00
  0.00000000E+00  0.00000000E+00  0.00000000E+00
  0.00000000E+00  0.00000000E+00  0.00000000E+00
  0.00000000E+00  0.00000000E+00  0.00000000E+00
  0.00000000E+00  0.00000000E+00  0.00000000E+00
  0.00000000E+00  0.00000000E+00  0.00000000E+00
  0.00000000E+00  0.00000000E+00  0.00000000E+00
  0.00000000E+00  0.00000000E+00  0.00000000E+00
  0.00000000E+00  0.00000000E+00  0.00000000E+00
  0.00000000E+00  0.00000000E+00  0.00000000E+00
  0.00000000E+00  0.00000000E+00  0.00000000E+00
  0.00000000E+00  0.00000000E+00  0.00000000E+00
  0.00000000E+00  0.00000000E+00  0.00000000E+00
  0.00000000E+00  0.00000000E+00  0.00000000E+00
  0.00000000E+00  0.00000000E+00  0.00000000E+00
  0.00000000E+00  0.00000000E+00  0.00000000E+00
  0.00000000E+00  0.00000000E+00  0.00000000E+00
  0.00000000E+00  0.00000000E+00  0.00000000E+00
  0.00000000E+00  0.00000000E+00  0.00000000E+00
  0.00000000E+00  0.00000000E+00  0.00000000E+00
  0.00000000E+00  0.00000000E+00  0.00000000E+00
  0.00000000E+00  0.00000000E+00  0.00000000E+00
  0.00000000E+00  0.00000000E+00  0.00000000E+00
  0.00000000E+00  0.00000000E+00  0.00000000E+00
  0.00000000E+00  0.00000000E+00  0.00000000E+00
  0.00000000E+00  0.00000000E+00  0.00000000E+00
  0.00000000E+00  0.00000000E+00  0.00000000E+00
  0.00000000E+00  0.00000000E+00  0.00000000E+00
  0.00000000E+00  0.00000000E+00  0.00000000E+00
  0.00000000E+00  0.00000000E+00  0.00000000E+00
  0.00000000E+00  0.00000000E+00  0.00000000E+00
  0.00000000E+00  0.00000000E+00  0.00000000E+00
  0.00000000E+00  0.00000000E+00  0.00000000E+00
  0.00000000E+00  0.00000000E+00  0.00000000E+00
  0.00000000E+00  0.00000000E+00  0.00000000E+00
  0.00000000E+00  0.00000000E+00  0.00000000E+00
  0.00000000E+00  0.00000000E+00  0.00000000E+00
  0.00000000E+00  0.00000000E+00  0.00000000E+00
  0.00000000E+00  0.00000000E+00  0.00000000E+00
  0.00000000E+00  0.00000000E+00  0.00000000E+00
  0.00000000E+00  0.00000000E+00  0.00000000E+00
  0.00000000E+00  0.00000000E+00  0.00000000E+00
  0.00000000E+00  0.00000000E+00  0.00000000E+00
  0.00000000E+00  0.00000000E+00  0.00000000E+00
  0.00000000E+00  0.00000000E+00  0.00000000E+00
  0.00000000E+00  0.00000000E+00  0.00000000E+00
  0.00000000E+00  0.00000000E+00  0.00000000E+00
  0.00000000E+00  0.00000000E+00  0.00000000E+00
  0.00000000E+00  0.00000000E+00  0.00000000E+00
  0.00000000E+00  0.00000000E+00  0.00000000E+00
  0.00000000E+00  0.00000000E+00  0.00000000E+00
  0.00000000E+00  0.00000000E+00  0.00000000E+00
  0.00000000E+00  0.00000000E+00  0.00000000E+00
  0.00000000E+00  0.00000000E+00  0.00000000E+00
  0.00000000E+00  0.00000000E+00  0.00000000E+00
  0.00000000E+00  0.00000000E+00  0.00000000E+00
  0.00000000E+00  0.00000000E+00  0.00000000E+00
  0.00000000E+00  0.00000000E+00  0.00000000E+00
  0.00000000E+00  0.00000000E+00  0.00000000E+00
  0.00000000E+00  0.00000000E+00  0.00000000E+00
  0.00000000E+00  0.00000000E+00  0.00000000E+00
  0.00000000E+00  0.00000000E+00  0.00000000E+00
  0.00000000E+00  0.00000000E+00  0.00000000E+00
  0.00000000E+00  0.00000000E+00  0.00000000E+00
  0.00000000E+00  0.00000000E+00  0.00000000E+00
  0.00000000E+00  0.00000000E+00  0.00000000E+00
  0.00000000E+00  0.00000000E+00  0.00000000E+00
  0.00000000E+00  0.00000000E+00  0.00000000E+00
