ba8 si8 c8                              
   1.00000000000000     
     8.5337998281122598   -0.0000000000000000    0.0000000000000000
    -0.0000000000000000    6.2170438408274329    0.0000000000000000
     0.0000000000000000    0.0000000000000000   11.4739369636149284
   Ba   Si   C 
     8     8     8
Direct
 -0.0292721156120676  0.2500000000663931  0.6583220497067964
  0.0292721188752993  0.7500000176088264  0.3416779503190597
  0.5292721189085949  0.7500000176088264  0.1583219879811322
  0.4707278810248055  0.2500000000663931  0.8416779914450819
  0.1272011957436634  0.7500000176088264  0.9287981636422209
  0.8727988043007381  0.2500000000663931  0.0712018157839931
  0.3727988042230405  0.2500000000663931  0.4287982458554756
  0.6272011957103606  0.7500000176088264  0.5712017952834707
  0.2173332563644720  0.0613377552545697  0.1613018800125238
  0.7826667436799229  0.9386622358635541  0.8386980994998863
  0.2826667436022251  0.9386622358635541  0.6613019005389023
  0.7173332563311757  0.0613377552545697  0.3386980994869541
  0.7826667436799229  0.5613377640921791  0.8386980994998863
  0.2173332563644720  0.4386622358783117  0.1613018800125238
  0.7173332563311757  0.4386622358783117  0.3386980994869541
  0.2826667436022251  0.5613377640921791  0.6613019005389023
  0.1353313340363168  0.7500000176088264  0.5669815558893589
  0.8646686461400952  0.2500000000663931  0.4330184440503090
  0.3646686725900487  0.2500000000663931  0.0669814942498830
  0.6353313538710035  0.7500000176088264  0.9330184851763306
  0.2094922652687735  0.2500000000663931  0.0178102481406136
  0.7905077215672996  0.7500000176088264 -0.0178102327727676
  0.2905077214896017  0.7500000176088264  0.5178101659876905
  0.7094922784437990  0.2500000000663931  0.4821897518119789
 
  0.00000000E+00  0.00000000E+00  0.00000000E+00
  0.00000000E+00  0.00000000E+00  0.00000000E+00
  0.00000000E+00  0.00000000E+00  0.00000000E+00
  0.00000000E+00  0.00000000E+00  0.00000000E+00
  0.00000000E+00  0.00000000E+00  0.00000000E+00
  0.00000000E+00  0.00000000E+00  0.00000000E+00
  0.00000000E+00  0.00000000E+00  0.00000000E+00
  0.00000000E+00  0.00000000E+00  0.00000000E+00
  0.00000000E+00  0.00000000E+00  0.00000000E+00
  0.00000000E+00  0.00000000E+00  0.00000000E+00
  0.00000000E+00  0.00000000E+00  0.00000000E+00
  0.00000000E+00  0.00000000E+00  0.00000000E+00
  0.00000000E+00  0.00000000E+00  0.00000000E+00
  0.00000000E+00  0.00000000E+00  0.00000000E+00
  0.00000000E+00  0.00000000E+00  0.00000000E+00
  0.00000000E+00  0.00000000E+00  0.00000000E+00
  0.00000000E+00  0.00000000E+00  0.00000000E+00
  0.00000000E+00  0.00000000E+00  0.00000000E+00
  0.00000000E+00  0.00000000E+00  0.00000000E+00
  0.00000000E+00  0.00000000E+00  0.00000000E+00
  0.00000000E+00  0.00000000E+00  0.00000000E+00
  0.00000000E+00  0.00000000E+00  0.00000000E+00
  0.00000000E+00  0.00000000E+00  0.00000000E+00
  0.00000000E+00  0.00000000E+00  0.00000000E+00
