ba8 si16                                
   1.00000000000000     
     8.4094680785999998    0.0000000000000000    0.0000000000000000
     0.0000000000000000    6.7778496741999996    0.0000000000000000
     0.0000000000000000    0.0000000000000000   11.6021432877000006
   Ba   Si
     8    16
Selective Dynamics
Direct
  0.0139792797173694  0.2500000000663931  0.6908451321191589 F T T
  0.9860207235458620  0.7500000176088264  0.3091548679066977 F T T
  0.4860207235791580  0.7500000176088264  0.1908450703934943 F T T
  0.5139792763542428  0.2500000000663931  0.8091549090327195 F T T
  0.1549037340909000  0.7500000176088264  0.9056145880881193 F T T
  0.8450962659535020  0.2500000000663931  0.0943853913380943 F T T
  0.3450962658758040  0.2500000000663931  0.4056146703013743 F T T
  0.6549037340575967  0.7500000176088264  0.5943853708375723 F T T
  0.1940383562131001  0.0729201734016942  0.1460351434484749 F T T
  0.8059616438312944  0.9270798177164291  0.8539648360639347 F T T
  0.3059616437535968  0.9270798177164291  0.6460351639748538 F T T
  0.6940383561798042  0.0729201734016942  0.3539648360510030 F T T
  0.8059616438312944  0.5729201822393041  0.8539648360639347 F T T
  0.1940383562131001  0.4270798177311873  0.1460351434484749 F T T
  0.6940383561798042  0.4270798177311873  0.3539648360510030 F T T
  0.3059616437535968  0.5729201822393041  0.6460351639748538 F T T
  0.0855985248378477  0.7500000176088264  0.5906382039979819 F T T
  0.9144014553385641  0.2500000000663931  0.4093617959416860 F T T
  0.4144014817885175  0.2500000000663931  0.0906381423585060 F T T
  0.5855985446725346  0.7500000176088264  0.9093618370677076 F T T
  0.1969924304418507  0.2500000000663931  0.9668248236813404 F T T
  0.8030075563942225  0.7500000176088264  0.0331751916865055 F T T
  0.3030075563165245  0.7500000176088264  0.4668247415284175 F T T
  0.6969924436168762  0.2500000000663931  0.5331751762712522 F T T
