ba8 si16                                
   1.00000000000000     
    23.0094680786000012    0.0000000000000000    0.0000000000000000
     0.0000000000000000    6.7778496741999996    0.0000000000000000
     0.0000000000000000    0.0000000000000000   11.6021432877000006
   Ba   Si
     8    16
Selective dynamics
Direct
  0.0056936146836932  0.2500000000663931  0.7104828731901502   F   T   T
  0.3695528538555379  0.7500000176088264  0.2895171268357066   F   T   T
  0.1819296202106742  0.7500000176088264  0.1856049509767656   F   T   T
  0.1933168470790463  0.2500000000663931  0.8143950284494480   F   T   T
  0.0597801408303269  0.7500000176088264  0.9197861597304635   F   T   T
  0.3154663265010456  0.2500000000663931  0.0802138196957502   F   T   T
  0.1278430928145298  0.2500000000663931  0.3961914403840643   F   T   T
  0.2474033744751907  0.7500000176088264  0.6038086007548822   F   T   T
  0.0728991332615152  0.0739390158600351  0.1444940400976605   F   T   T
  0.3023473340698573  0.9260609752580883  0.8555059394147495   F   T   T
  0.1147241003833415  0.9268529440954997  0.6629947776823774   F   T   T
  0.2605223669063790  0.0731470470226239  0.3370052223434796   F   T   T
  0.3023473340698573  0.5739390246976449  0.8555059394147495   F   T   T
  0.0728991332615152  0.4260609752728465  0.1444940400976605   F   T   T
  0.2605223669063790  0.4268529441102575  0.3370052223434796   F   T   T
  0.1147241003833415  0.5731470558602335  0.6629947776823774   F   T   T
  0.0311098080788312  0.7500000176088264  0.6064900996864341   F   T   T
  0.3441366517971503  0.2500000000663931  0.3935099002532340   F   T   T
  0.1565134280650469  0.2500000000663931  0.0854903580461547   F   T   T
  0.2187330491790789  0.7500000176088264  0.9145096213800592   F   T   T
  0.0741839757202953  0.2500000000663931  0.9641151144360744   F   T   T
  0.3010624866547005  0.7500000176088264  0.0358849009317712   F   T   T
  0.1134392529681918  0.7500000176088264  0.4822349777762148   F   T   T
  0.2618072143215286  0.2500000000663931  0.5177649400234550   F   T   T
