ba8 si16                                
   1.00000000000000     
     8.9082605046904799    0.0000000000000000    0.0000000000000000
     0.0000000000000000    6.7268619782399872    0.0000000000000000
     0.0000000000000000    0.0000000000000000   11.5056126679544466
   Ba   Si
     8    16
Direct
  0.0153640613393872  0.2500000000663931  0.6921318589842707
  0.9846359419238446  0.7500000176088264  0.3078681410415861
  0.4846359419571402  0.7500000176088264  0.1921317972586060
  0.5153640579762602  0.2500000000663931  0.8078681821676077
  0.1607022375411312  0.7500000176088264  0.9065028198395773
  0.8392977625032706  0.2500000000663931  0.0934971595866364
  0.3392977624255727  0.2500000000663931  0.4065029020528322
  0.6607022375078281  0.7500000176088264  0.5934971390861143
  0.1934579973344091  0.0710039003463623  0.1463742421589062
  0.8065420027099856  0.9289960907717610  0.8536257373535036
  0.3065420026322878  0.9289960907717610  0.6463742626852850
  0.6934579973011131  0.0710039003463623  0.3536257373405717
  0.8065420027099856  0.5710039091839721  0.8536257373535036
  0.1934579973344091  0.4289960907865191  0.1463742421589062
  0.6934579973011131  0.4289960907865191  0.3536257373405717
  0.3065420026322878  0.5710039091839721  0.6463742626852850
  0.0812680074785107  0.7500000176088264  0.5909674457648871
  0.9187319726979014  0.2500000000663931  0.4090325541747808
  0.4187319991478544  0.2500000000663931  0.0909673841254114
  0.5812680273131973  0.7500000176088264  0.9090325953008024
  0.1963977325620792  0.2500000000663931  0.9649247771092211
  0.8036022542739941  0.7500000176088264  0.0350752382586245
  0.3036022541962961  0.7500000176088264  0.4649246949562985
  0.6963977457371046  0.2500000000663931  0.5350752228433715
 
  0.00000000E+00  0.00000000E+00  0.00000000E+00
  0.00000000E+00  0.00000000E+00  0.00000000E+00
  0.00000000E+00  0.00000000E+00  0.00000000E+00
  0.00000000E+00  0.00000000E+00  0.00000000E+00
  0.00000000E+00  0.00000000E+00  0.00000000E+00
  0.00000000E+00  0.00000000E+00  0.00000000E+00
  0.00000000E+00  0.00000000E+00  0.00000000E+00
  0.00000000E+00  0.00000000E+00  0.00000000E+00
  0.00000000E+00  0.00000000E+00  0.00000000E+00
  0.00000000E+00  0.00000000E+00  0.00000000E+00
  0.00000000E+00  0.00000000E+00  0.00000000E+00
  0.00000000E+00  0.00000000E+00  0.00000000E+00
  0.00000000E+00  0.00000000E+00  0.00000000E+00
  0.00000000E+00  0.00000000E+00  0.00000000E+00
  0.00000000E+00  0.00000000E+00  0.00000000E+00
  0.00000000E+00  0.00000000E+00  0.00000000E+00
  0.00000000E+00  0.00000000E+00  0.00000000E+00
  0.00000000E+00  0.00000000E+00  0.00000000E+00
  0.00000000E+00  0.00000000E+00  0.00000000E+00
  0.00000000E+00  0.00000000E+00  0.00000000E+00
  0.00000000E+00  0.00000000E+00  0.00000000E+00
  0.00000000E+00  0.00000000E+00  0.00000000E+00
  0.00000000E+00  0.00000000E+00  0.00000000E+00
  0.00000000E+00  0.00000000E+00  0.00000000E+00
