ba8 si16                                
   1.00000000000000     
    23.8902655940778423    0.0000000000000000    0.0000000000000000
     0.0000000000000000    6.3723609452461547    0.0000000000000000
     0.0000000000000000    0.0000000000000000   10.0750879206970829
   Ba   Si
     4     8
Direct
  0.0544847961092895  0.2500000000663931  0.8048818680645159
  0.1764711379692476  0.7500000176088264  0.3048818063388518
  0.1763830467629403  0.7500000176088264  0.8453177269398120
  0.0545728857775135  0.2500000000663931  0.3453178091530670
  0.1124518334350830  0.0591312235395883  0.0750655508410696
  0.1185040991053705  0.9408687675785348  0.5750655713674490
  0.1124518334350830  0.4408687675932932  0.0750655508410696
  0.1185040991053705  0.5591312323771984  0.5750655713674490
  0.0455499005999855  0.7500000176088264  0.6936529026902120
  0.1854060350166421  0.2500000000663931  0.1936528410507363
  0.1853532558888936  0.2500000000663931  0.9564053991318850
  0.0456026705504777  0.7500000176088264  0.4564053169789630
 
  0.00000000E+00  0.00000000E+00  0.00000000E+00
  0.00000000E+00  0.00000000E+00  0.00000000E+00
  0.00000000E+00  0.00000000E+00  0.00000000E+00
  0.00000000E+00  0.00000000E+00  0.00000000E+00
  0.00000000E+00  0.00000000E+00  0.00000000E+00
  0.00000000E+00  0.00000000E+00  0.00000000E+00
  0.00000000E+00  0.00000000E+00  0.00000000E+00
  0.00000000E+00  0.00000000E+00  0.00000000E+00
  0.00000000E+00  0.00000000E+00  0.00000000E+00
  0.00000000E+00  0.00000000E+00  0.00000000E+00
  0.00000000E+00  0.00000000E+00  0.00000000E+00
  0.00000000E+00  0.00000000E+00  0.00000000E+00
