ba8 si16                                
   1.00000000000000     
     6.4762781796946491    0.0000000000000000    0.0000000000000000
     0.0000000000000000    6.9084500614295958    0.0000000000000000
     0.0000000000000000    0.0000000000000000    8.8793165888236114
   Ba   Si
     4     8
Direct
 -0.1035328656460301  0.2500000000663931  0.8990691400945474
  0.3344887997245672  0.7500000176088264  0.3990690783688827
  0.3074856179020962  0.7500000176088264  0.8260590584859606
 -0.0765296853616427  0.2500000000663931  0.3260591406992154
  0.1714895288734105  0.0621872376115991  0.0960270465062928
  0.0594664036670430  0.9378127535065247  0.5960270670326721
  0.1714895288734105  0.4378127535212823  0.0960270465062928
  0.0594664036670431  0.5621872464492085  0.5960270670326721
 -0.1701324634111150  0.7500000176088264  0.6681631471742657
  0.4010883990277428  0.2500000000663931  0.1681630855347896
  0.3024187616656869  0.2500000000663931  0.8650435597412065
 -0.0714628352263157  0.7500000176088264  0.3650434775882829
 
  0.00000000E+00  0.00000000E+00  0.00000000E+00
  0.00000000E+00  0.00000000E+00  0.00000000E+00
  0.00000000E+00  0.00000000E+00  0.00000000E+00
  0.00000000E+00  0.00000000E+00  0.00000000E+00
  0.00000000E+00  0.00000000E+00  0.00000000E+00
  0.00000000E+00  0.00000000E+00  0.00000000E+00
  0.00000000E+00  0.00000000E+00  0.00000000E+00
  0.00000000E+00  0.00000000E+00  0.00000000E+00
  0.00000000E+00  0.00000000E+00  0.00000000E+00
  0.00000000E+00  0.00000000E+00  0.00000000E+00
  0.00000000E+00  0.00000000E+00  0.00000000E+00
  0.00000000E+00  0.00000000E+00  0.00000000E+00
