ba8 si16                                
   1.00000000000000     
    13.7179348520956612    0.0000000000000000   -0.4078222219463650
     0.0000000000000000    6.3696641184767460    0.0000000000000000
    -0.1972864186607747    0.0000000000000000   10.0799169000220257
   Ba   Si
     4     8
Direct
 -0.0141125664629095  0.2500000000663931  0.7945068512619743
  0.1980457194694679  0.7500000176088264  0.3087902895097445
  0.1977258401277209  0.7500000176088264  0.8507498149188329
 -0.0148696906528444  0.2500000000663931  0.3364088640903039
  0.0849617242671190  0.0588364611379835  0.0725722356681334
  0.0986386672311776  0.9411321666777345  0.5726515381931931
  0.0849617242671190  0.4411635299948981  0.0725722356681335
  0.0986386672311776  0.5588678332779987  0.5726515381931930
 -0.0281168597633873  0.7500000176088264  0.6833561924226601
  0.2121949916887631  0.2500000000663931  0.1992047935791637
  0.2117947861645856  0.2500000000663931  0.9618608530727066
 -0.0287946423608774  0.7500000176088264  0.4460066328143779
 
  0.00000000E+00  0.00000000E+00  0.00000000E+00
  0.00000000E+00  0.00000000E+00  0.00000000E+00
  0.00000000E+00  0.00000000E+00  0.00000000E+00
  0.00000000E+00  0.00000000E+00  0.00000000E+00
  0.00000000E+00  0.00000000E+00  0.00000000E+00
  0.00000000E+00  0.00000000E+00  0.00000000E+00
  0.00000000E+00  0.00000000E+00  0.00000000E+00
  0.00000000E+00  0.00000000E+00  0.00000000E+00
  0.00000000E+00  0.00000000E+00  0.00000000E+00
  0.00000000E+00  0.00000000E+00  0.00000000E+00
  0.00000000E+00  0.00000000E+00  0.00000000E+00
  0.00000000E+00  0.00000000E+00  0.00000000E+00
