ba8 si16                                
   1.00000000000000     
   106.7999667641729218    0.0000000000000000    0.0692340319827225
     0.0000000000000000    6.7219169443202951    0.0000000000000000
     0.0076099077146654    0.0000000000000000   11.5118949821080001
   Ba   Si
    80   160
Direct
  0.0124430305794521  0.2500000000663931  0.7067720477717802
  0.0943007794497096  0.2500000000663931  0.6952687677252949
  0.1779346389100754  0.2500000000663931  0.6956817257288332
  0.2618609504832944  0.2500000000663931  0.6947069444689180
  0.3458397288251377  0.2500000000663931  0.6939666151110341
  0.4299630147325632  0.2500000000663931  0.6914849441411537
  0.5140013212867095  0.2500000000663931  0.6897145803943222
  0.5980462364835344  0.2500000000663931  0.6883876181503095
  0.6819616083650186  0.2500000000663931  0.6880714800025485
  0.7656789647316344  0.2500000000663931  0.6881215205013649
  0.0915925483753882  0.7500000176088264  0.3118784795244918
  0.1753099682656759  0.7500000176088264  0.3119285200233158
  0.2592253220016257  0.7500000176088264  0.3116123818755476
  0.3432702734990486  0.7500000176088264  0.3102854196315336
  0.4273085437621104  0.7500000176088264  0.3085150558847023
  0.5114318296600149  0.7500000176088264  0.3060333849148224
  0.5954106624480047  0.7500000176088264  0.3052930555569313
  0.6793368832839930  0.7500000176088264  0.3043182742970240
  0.7629707518123757  0.7500000176088264  0.3047312323005623
  0.8448285009680948  0.7500000176088264  0.2932279522540765
  0.0487806679741448  0.7500000176088264  0.1973969324783104
  0.1334276619866712  0.7500000176088264  0.1959590771748986
  0.2172599326385903  0.7500000176088264  0.1952107267881489
  0.3011859972497643  0.7500000176088264  0.1943706035982675
  0.3853011511915140  0.7500000176088264  0.1927849718949268
  0.4693889575545277  0.7500000176088264  0.1901298431815191
  0.5534451061706595  0.7500000176088264  0.1887844855806506
  0.6374252916070297  0.7500000176088264  0.1887385622937738
  0.7212011997257487  0.7500000176088264  0.1877762271582258
  0.8046047339354041  0.7500000176088264  0.1877807634453937
  0.0526668336177651  0.2500000000663931  0.8122192159808193
  0.1360703678369419  0.2500000000663931  0.8122237522679876
  0.2198462668781299  0.2500000000663931  0.8112614171324333
  0.3038265067606398  0.2500000000663931  0.8112154938455635
  0.3878826372312297  0.2500000000663931  0.8098701362446954
  0.4719704072936453  0.2500000000663931  0.8072150075312866
  0.5560856156815355  0.2500000000663931  0.8056293758279394
  0.6400116258465693  0.2500000000663931  0.8047892526380650
  0.7238438964984810  0.2500000000663931  0.8040409022513152
  0.8084908814334825  0.2500000000663931  0.8026030469479039
  0.0271590373543886  0.7500000176088264  0.9163486470224893
  0.1065592009753833  0.7500000176088264  0.9104424118625607
  0.1900905859269088  0.7500000176088264  0.9096403667561208
  0.2739156950562308  0.7500000176088264  0.9084584701557803
  0.3579504100126039  0.7500000176088264  0.9080568187626972
  0.4420788828431373  0.7500000176088264  0.9053431907570172
  0.5261112492744990  0.7500000176088264  0.9035074299734334
  0.6102352988896711  0.7500000176088264  0.9028748548323884
  0.6940698979286302  0.7500000176088264  0.9018618318068125
  0.7781270790046011  0.7500000176088264  0.9021698505163230
  0.0791444567962465  0.2500000000663931  0.0978301289098901
  0.1632016424014734  0.2500000000663931  0.0981381476194012
  0.2470362414499398  0.2500000000663931  0.0971251245938257
  0.3311603455112588  0.2500000000663931  0.0964925494527803
  0.4151926756420150  0.2500000000663931  0.0946567886692040
  0.4993211121719502  0.2500000000663931  0.0919431606635165
  0.5833558452833868  0.2500000000663931  0.0915415092704334
  0.6671809181121037  0.2500000000663931  0.0903596126701006
  0.7507123756648326  0.2500000000663931  0.0895575675636526
  0.8301124666846234  0.2500000000663931  0.0836513324037246
  0.0381290365636528  0.2500000000663931  0.3998101109281016
  0.1213226340432260  0.2500000000663931  0.4093175782507278
  0.2051348753125155  0.2500000000663931  0.4095641459196323
  0.2891365380819056  0.2500000000663931  0.4083760068609358
  0.3731230159981345  0.2500000000663931  0.4078231001002647
  0.4573193943412642  0.2500000000663931  0.4049452170117339
  0.5412586517100013  0.2500000000663931  0.4035739945855598
  0.6253102897467058  0.2500000000663931  0.4025810793602388
  0.7090922525053137  0.2500000000663931  0.4018435429858592
  0.7924967106863285  0.2500000000663931  0.3999294331319443
  0.0647748296532819  0.7500000176088264  0.6000706080070025
  0.1481793604259786  0.7500000176088264  0.5981564981530877
  0.2319612505833906  0.7500000176088264  0.5974189617787007
  0.3160129793668333  0.7500000176088264  0.5964260465533797
  0.3999522004444862  0.7500000176088264  0.5950548241272130
  0.4841485424870249  0.7500000176088264  0.5921769410386811
  0.5681350385487887  0.7500000176088264  0.5916240342780102
  0.6521367013277001  0.7500000176088264  0.5904358952193136
  0.7359489425874690  0.7500000176088264  0.5906824628882194
  0.8191424674753592  0.7500000176088264  0.6001899302108380
  0.0245651409818861  0.0720302922706193  0.1488955267061008
  0.1089617615485628  0.0707835408877116  0.1497276582459194
  0.1928210449585501  0.0706975103133178  0.1496032018918168
  0.2766168049591597  0.0705544079586314  0.1486474419539536
  0.3607992883779161  0.0707004058206415  0.1479671709310725
  0.4448291231553127  0.0705775542911672  0.1455608844120001
  0.5289417644368988  0.0705102447532718  0.1434836262480376
  0.6129545473814092  0.0705749107797717  0.1429654550112245
  0.6967422693695720  0.0705831952936051  0.1418310265519049
  0.7800086522365290  0.0703208672901938  0.1409711991097813
  0.0772628835643195  0.9296791238279293  0.8590287804026291
  0.1605292709700389  0.9294167958245186  0.8581689529605044
  0.2443169929582089  0.9294250803383513  0.8570345245011850
  0.3283297940482673  0.9294897463648513  0.8565163532643726
  0.4124424353393537  0.9294224368269554  0.8544390951004099
  0.4964723064078413  0.9292995852974811  0.8520328085813373
  0.5806547898170765  0.9294455831594923  0.8513525375584572
  0.6644505316721512  0.9293024808048058  0.8503967776205931
  0.7483098241596695  0.9292164502304121  0.8502723212664902
  0.8327064390552632  0.9279696988475047  0.8511044528063093
  0.0352370284670759  0.9279513625317507  0.6466266667981658
  0.1185932353994919  0.9292609731656590  0.6494498108574261
  0.2023502167333423  0.9292988806503824  0.6492578577685332
  0.2864207527130765  0.9294808123616468  0.6486006909476604
  0.3703124868777505  0.9293426429891256  0.6479072002598854
  0.4545296145997911  0.9294391112835999  0.6450972778813080
  0.5385004050312544  0.9294243745595746  0.6438538575282230
  0.6225263856121367  0.9294810572407830  0.6427246122152747
  0.7063976446247533  0.9294121627041175  0.6418719925402464
  0.7901833442606939  0.9300705608733130  0.6419176860520205
  0.0670882006081640  0.0699294302448100  0.3580823139738366
  0.1508739047923815  0.0705878284139985  0.3581280074856106
  0.2347451547274736  0.0705189338773409  0.3572753878105816
  0.3187711897545036  0.0705756165585487  0.3561461424976334
  0.4027419438948824  0.0705608798345231  0.3549027221445483
  0.4869591079080069  0.0706573481289978  0.3520927997659709
  0.5708508420631668  0.0705191787564772  0.3513993090781969
  0.6549213598973515  0.0707011104677414  0.3507421422573299
  0.7386783412407240  0.0707390179524638  0.3505501891684302
  0.8220345436248556  0.0720486285863725  0.3533733332276909
  0.0772628835643195  0.5703208761278039  0.8590287804026291
  0.1605292709700389  0.5705832041312145  0.8581689529605044
  0.2443169929582089  0.5705749196173819  0.8570345245011850
  0.3283297940482673  0.5705102535908819  0.8565163532643726
  0.4124424353393537  0.5705775631287778  0.8544390951004099
  0.4964723064078413  0.5707004146582521  0.8520328085813373
  0.5806547898170765  0.5705544167962409  0.8513525375584572
  0.6644505316721512  0.5706975191509274  0.8503967776205931
  0.7483098241596695  0.5707835497253211  0.8502723212664902
  0.8327064390552632  0.5720303011082285  0.8511044528063093
  0.0245651409818861  0.4279696988622617  0.1488955267061008
  0.1089617615485628  0.4292164502451695  0.1497276582459194
  0.1928210449585501  0.4293024808195636  0.1496032018918168
  0.2766168049591597  0.4294455831742503  0.1486474419539536
  0.3607992883779161  0.4292995853122401  0.1479671709310725
  0.4448291231553127  0.4294224368417140  0.1455608844120001
  0.5289417644368988  0.4294897463796096  0.1434836262480376
  0.6129545473814092  0.4294250803531100  0.1429654550112245
  0.6967422693695720  0.4294167958392766  0.1418310265519049
  0.7800086522365290  0.4296791238426877  0.1409711991097813
  0.0670882006081640  0.4300705608880713  0.3580823139738366
  0.1508739047923815  0.4294121627188829  0.3581280074856106
  0.2347451547274736  0.4294810572555405  0.3572753878105816
  0.3187711897545036  0.4294243745743329  0.3561461424976334
  0.4027419438948824  0.4294391112983585  0.3549027221445483
  0.4869591079080069  0.4293426430038835  0.3520927997659709
  0.5708508420631668  0.4294808123764042  0.3513993090781969
  0.6549213598973515  0.4292988806651401  0.3507421422573299
  0.7386783412407240  0.4292609731804178  0.3505501891684302
  0.8220345436248556  0.4279513625465092  0.3533733332276909
  0.0352370284670759  0.5720486374239825  0.6466266667981658
  0.1185932353994919  0.5707390267900742  0.6494498108574261
  0.2023502167333423  0.5707011193053508  0.6492578577685332
  0.2864207527130765  0.5705191875940864  0.6486006909476604
  0.3703124868777505  0.5706573569666076  0.6479072002598854
  0.4545296145997911  0.5705608886721333  0.6450972778813080
  0.5385004050312544  0.5705756253961586  0.6438538575282159
  0.6225263856121367  0.5705189427149502  0.6427246122152747
  0.7063976446247533  0.5705878372516157  0.6418719925402464
  0.7901833442606939  0.5699294390824202  0.6419176860520205
  0.0153934335477443  0.7500000176088264  0.6257465682951201
  0.0997860736962193  0.7500000176088264  0.5951840660153730
  0.1835224322725378  0.7500000176088264  0.5952755994672138
  0.2676183156132260  0.7500000176088264  0.5941505254197730
  0.3514940681178627  0.7500000176088264  0.5934295233868825
  0.4357109125605883  0.7500000176088264  0.5907946406465421
  0.5196881402369891  0.7500000176088264  0.5892432950449833
  0.6037250125285561  0.7500000176088264  0.5879034529948686
  0.6875943794563162  0.7500000176088264  0.5871357184558478
  0.7714435511742546  0.7500000176088264  0.5873328664653974
  0.0858280345339718  0.2500000000663931  0.4126671334742703
  0.1696772153294410  0.2500000000663931  0.4128642814838197
  0.2535465822572016  0.2500000000663931  0.4120965469447993
  0.3375834545487679  0.2500000000663931  0.4107567048946838
  0.4215606822156479  0.2500000000663931  0.4092053592931257
  0.5057774903672964  0.2500000000663931  0.4065704765527850
  0.5896532610269895  0.2500000000663931  0.4058494745198949
  0.6737491080670797  0.2500000000663931  0.4047244004724544
  0.7574854575658663  0.2500000000663931  0.4048159339242945
  0.8418780965820273  0.2500000000663931  0.3742534316445473
  0.0437438458504218  0.2500000000663931  0.0864286056768488
  0.1278281193496199  0.2500000000663931  0.0959131071330310
  0.2116375660032364  0.2500000000663931  0.0946862896799732
  0.2954338456814827  0.2500000000663931  0.0940208419576430
  0.3796133450568656  0.2500000000663931  0.0927888626560980
  0.4636268950815239  0.2500000000663931  0.0902680172391576
  0.5477502351153822  0.2500000000663931  0.0882734798255286
  0.6317790538571566  0.2500000000663931  0.0883939071067055
  0.7155430729757924  0.2500000000663931  0.0868874903164900
  0.7986841934344329  0.2500000000663931  0.0865466534606056
  0.0585873015365688  0.7500000176088264  0.9134533259656009
  0.1417284945868842  0.7500000176088264  0.9131124891097234
  0.2254925046280039  0.7500000176088264  0.9116060723195072
  0.3095213596703754  0.7500000176088264  0.9117264996006851
  0.3936446634036283  0.7500000176088264  0.9097319621870558
  0.4776582134282937  0.7500000176088264  0.9072111167701152
  0.5618377309587325  0.7500000176088264  0.9059791374685711
  0.6456339924819159  0.7500000176088264  0.9053136897462406
  0.7294434391355397  0.7500000176088264  0.9040868722931826
  0.8135277058313404  0.7500000176088264  0.9135713737493648
  0.0247485140226622  0.2500000000663931  0.9669433793291607
  0.1093851725610740  0.2500000000663931  0.9686068056711074
  0.1931303861767697  0.2500000000663931  0.9683274149420785
  0.2769758635307484  0.2500000000663931  0.9672776950465255
  0.3611154458585085  0.2500000000663931  0.9665236228107784
  0.4451119799505264  0.2500000000663931  0.9641499094725976
  0.5292640150301627  0.2500000000663931  0.9620434389279794
  0.6133027506350951  0.2500000000663931  0.9617089775295647
  0.6970691597186387  0.2500000000663931  0.9605591148500169
  0.7806653886024880  0.2500000000663931  0.9591420102419546
  0.0766061925764897  0.7500000176088264  0.0408580051258973
  0.1602023443203733  0.7500000176088264  0.0394409005178289
  0.2439687715494664  0.7500000176088264  0.0382910378382813
  0.3280076160561859  0.7500000176088264  0.0379565764398660
  0.4121596148257168  0.7500000176088264  0.0358501058952493
  0.4961561126266437  0.7500000176088264  0.0334763925570666
  0.5802957131094673  0.7500000176088264  0.0327223203213205
  0.6641411541628401  0.7500000176088264  0.0316726004257669
  0.7478863677785361  0.7500000176088264  0.0313932096967383
  0.8325230206458789  0.7500000176088264  0.0330566360386844
  0.0306035148522222  0.7500000176088264  0.4675233800780241
  0.1182908023280786  0.7500000176088264  0.4682130394801863
  0.2019948445636786  0.7500000176088264  0.4680194051310716
  0.2860902970689466  0.7500000176088264  0.4672412585361242
  0.3699995838234676  0.7500000176088264  0.4665365653420134
  0.4541776968947169  0.7500000176088264  0.4636412415528801
  0.5381991728075192  0.7500000176088264  0.4625044832798066
  0.6222255308992537  0.7500000176088264  0.4613115445483554
  0.7061004290014528  0.7500000176088264  0.4606135843352492
  0.7898581758047878  0.7500000176088264  0.4604638153598298
  0.0674133191662063  0.2500000000663931  0.5395361024398396
  0.1511711476387550  0.2500000000663931  0.5393863334644134
  0.2350459731397582  0.2500000000663931  0.5386883732513145
  0.3190723856776340  0.2500000000663931  0.5374954345198634
  0.4030938615904425  0.2500000000663931  0.5363586762467896
  0.4872719746616917  0.2500000000663931  0.5334633524576636
  0.5711812614257270  0.2500000000663931  0.5327586592635456
  0.6552766957759448  0.2500000000663931  0.5319805126685976
  0.7389807470890707  0.2500000000663931  0.5317868783194836
  0.8266680322907848  0.2500000000663931  0.5324765377216458
 
  0.00000000E+00  0.00000000E+00  0.00000000E+00
  0.00000000E+00  0.00000000E+00  0.00000000E+00
  0.00000000E+00  0.00000000E+00  0.00000000E+00
  0.00000000E+00  0.00000000E+00  0.00000000E+00
  0.00000000E+00  0.00000000E+00  0.00000000E+00
  0.00000000E+00  0.00000000E+00  0.00000000E+00
  0.00000000E+00  0.00000000E+00  0.00000000E+00
  0.00000000E+00  0.00000000E+00  0.00000000E+00
  0.00000000E+00  0.00000000E+00  0.00000000E+00
  0.00000000E+00  0.00000000E+00  0.00000000E+00
  0.00000000E+00  0.00000000E+00  0.00000000E+00
  0.00000000E+00  0.00000000E+00  0.00000000E+00
  0.00000000E+00  0.00000000E+00  0.00000000E+00
  0.00000000E+00  0.00000000E+00  0.00000000E+00
  0.00000000E+00  0.00000000E+00  0.00000000E+00
  0.00000000E+00  0.00000000E+00  0.00000000E+00
  0.00000000E+00  0.00000000E+00  0.00000000E+00
  0.00000000E+00  0.00000000E+00  0.00000000E+00
  0.00000000E+00  0.00000000E+00  0.00000000E+00
  0.00000000E+00  0.00000000E+00  0.00000000E+00
  0.00000000E+00  0.00000000E+00  0.00000000E+00
  0.00000000E+00  0.00000000E+00  0.00000000E+00
  0.00000000E+00  0.00000000E+00  0.00000000E+00
  0.00000000E+00  0.00000000E+00  0.00000000E+00
  0.00000000E+00  0.00000000E+00  0.00000000E+00
  0.00000000E+00  0.00000000E+00  0.00000000E+00
  0.00000000E+00  0.00000000E+00  0.00000000E+00
  0.00000000E+00  0.00000000E+00  0.00000000E+00
  0.00000000E+00  0.00000000E+00  0.00000000E+00
  0.00000000E+00  0.00000000E+00  0.00000000E+00
  0.00000000E+00  0.00000000E+00  0.00000000E+00
  0.00000000E+00  0.00000000E+00  0.00000000E+00
  0.00000000E+00  0.00000000E+00  0.00000000E+00
  0.00000000E+00  0.00000000E+00  0.00000000E+00
  0.00000000E+00  0.00000000E+00  0.00000000E+00
  0.00000000E+00  0.00000000E+00  0.00000000E+00
  0.00000000E+00  0.00000000E+00  0.00000000E+00
  0.00000000E+00  0.00000000E+00  0.00000000E+00
  0.00000000E+00  0.00000000E+00  0.00000000E+00
  0.00000000E+00  0.00000000E+00  0.00000000E+00
  0.00000000E+00  0.00000000E+00  0.00000000E+00
  0.00000000E+00  0.00000000E+00  0.00000000E+00
  0.00000000E+00  0.00000000E+00  0.00000000E+00
  0.00000000E+00  0.00000000E+00  0.00000000E+00
  0.00000000E+00  0.00000000E+00  0.00000000E+00
  0.00000000E+00  0.00000000E+00  0.00000000E+00
  0.00000000E+00  0.00000000E+00  0.00000000E+00
  0.00000000E+00  0.00000000E+00  0.00000000E+00
  0.00000000E+00  0.00000000E+00  0.00000000E+00
  0.00000000E+00  0.00000000E+00  0.00000000E+00
  0.00000000E+00  0.00000000E+00  0.00000000E+00
  0.00000000E+00  0.00000000E+00  0.00000000E+00
  0.00000000E+00  0.00000000E+00  0.00000000E+00
  0.00000000E+00  0.00000000E+00  0.00000000E+00
  0.00000000E+00  0.00000000E+00  0.00000000E+00
  0.00000000E+00  0.00000000E+00  0.00000000E+00
  0.00000000E+00  0.00000000E+00  0.00000000E+00
  0.00000000E+00  0.00000000E+00  0.00000000E+00
  0.00000000E+00  0.00000000E+00  0.00000000E+00
  0.00000000E+00  0.00000000E+00  0.00000000E+00
  0.00000000E+00  0.00000000E+00  0.00000000E+00
  0.00000000E+00  0.00000000E+00  0.00000000E+00
  0.00000000E+00  0.00000000E+00  0.00000000E+00
  0.00000000E+00  0.00000000E+00  0.00000000E+00
  0.00000000E+00  0.00000000E+00  0.00000000E+00
  0.00000000E+00  0.00000000E+00  0.00000000E+00
  0.00000000E+00  0.00000000E+00  0.00000000E+00
  0.00000000E+00  0.00000000E+00  0.00000000E+00
  0.00000000E+00  0.00000000E+00  0.00000000E+00
  0.00000000E+00  0.00000000E+00  0.00000000E+00
  0.00000000E+00  0.00000000E+00  0.00000000E+00
  0.00000000E+00  0.00000000E+00  0.00000000E+00
  0.00000000E+00  0.00000000E+00  0.00000000E+00
  0.00000000E+00  0.00000000E+00  0.00000000E+00
  0.00000000E+00  0.00000000E+00  0.00000000E+00
  0.00000000E+00  0.00000000E+00  0.00000000E+00
  0.00000000E+00  0.00000000E+00  0.00000000E+00
  0.00000000E+00  0.00000000E+00  0.00000000E+00
  0.00000000E+00  0.00000000E+00  0.00000000E+00
  0.00000000E+00  0.00000000E+00  0.00000000E+00
  0.00000000E+00  0.00000000E+00  0.00000000E+00
  0.00000000E+00  0.00000000E+00  0.00000000E+00
  0.00000000E+00  0.00000000E+00  0.00000000E+00
  0.00000000E+00  0.00000000E+00  0.00000000E+00
  0.00000000E+00  0.00000000E+00  0.00000000E+00
  0.00000000E+00  0.00000000E+00  0.00000000E+00
  0.00000000E+00  0.00000000E+00  0.00000000E+00
  0.00000000E+00  0.00000000E+00  0.00000000E+00
  0.00000000E+00  0.00000000E+00  0.00000000E+00
  0.00000000E+00  0.00000000E+00  0.00000000E+00
  0.00000000E+00  0.00000000E+00  0.00000000E+00
  0.00000000E+00  0.00000000E+00  0.00000000E+00
  0.00000000E+00  0.00000000E+00  0.00000000E+00
  0.00000000E+00  0.00000000E+00  0.00000000E+00
  0.00000000E+00  0.00000000E+00  0.00000000E+00
  0.00000000E+00  0.00000000E+00  0.00000000E+00
  0.00000000E+00  0.00000000E+00  0.00000000E+00
  0.00000000E+00  0.00000000E+00  0.00000000E+00
  0.00000000E+00  0.00000000E+00  0.00000000E+00
  0.00000000E+00  0.00000000E+00  0.00000000E+00
  0.00000000E+00  0.00000000E+00  0.00000000E+00
  0.00000000E+00  0.00000000E+00  0.00000000E+00
  0.00000000E+00  0.00000000E+00  0.00000000E+00
  0.00000000E+00  0.00000000E+00  0.00000000E+00
  0.00000000E+00  0.00000000E+00  0.00000000E+00
  0.00000000E+00  0.00000000E+00  0.00000000E+00
  0.00000000E+00  0.00000000E+00  0.00000000E+00
  0.00000000E+00  0.00000000E+00  0.00000000E+00
  0.00000000E+00  0.00000000E+00  0.00000000E+00
  0.00000000E+00  0.00000000E+00  0.00000000E+00
  0.00000000E+00  0.00000000E+00  0.00000000E+00
  0.00000000E+00  0.00000000E+00  0.00000000E+00
  0.00000000E+00  0.00000000E+00  0.00000000E+00
  0.00000000E+00  0.00000000E+00  0.00000000E+00
  0.00000000E+00  0.00000000E+00  0.00000000E+00
  0.00000000E+00  0.00000000E+00  0.00000000E+00
  0.00000000E+00  0.00000000E+00  0.00000000E+00
  0.00000000E+00  0.00000000E+00  0.00000000E+00
  0.00000000E+00  0.00000000E+00  0.00000000E+00
  0.00000000E+00  0.00000000E+00  0.00000000E+00
  0.00000000E+00  0.00000000E+00  0.00000000E+00
  0.00000000E+00  0.00000000E+00  0.00000000E+00
  0.00000000E+00  0.00000000E+00  0.00000000E+00
  0.00000000E+00  0.00000000E+00  0.00000000E+00
  0.00000000E+00  0.00000000E+00  0.00000000E+00
  0.00000000E+00  0.00000000E+00  0.00000000E+00
  0.00000000E+00  0.00000000E+00  0.00000000E+00
  0.00000000E+00  0.00000000E+00  0.00000000E+00
  0.00000000E+00  0.00000000E+00  0.00000000E+00
  0.00000000E+00  0.00000000E+00  0.00000000E+00
  0.00000000E+00  0.00000000E+00  0.00000000E+00
  0.00000000E+00  0.00000000E+00  0.00000000E+00
  0.00000000E+00  0.00000000E+00  0.00000000E+00
  0.00000000E+00  0.00000000E+00  0.00000000E+00
  0.00000000E+00  0.00000000E+00  0.00000000E+00
  0.00000000E+00  0.00000000E+00  0.00000000E+00
  0.00000000E+00  0.00000000E+00  0.00000000E+00
  0.00000000E+00  0.00000000E+00  0.00000000E+00
  0.00000000E+00  0.00000000E+00  0.00000000E+00
  0.00000000E+00  0.00000000E+00  0.00000000E+00
  0.00000000E+00  0.00000000E+00  0.00000000E+00
  0.00000000E+00  0.00000000E+00  0.00000000E+00
  0.00000000E+00  0.00000000E+00  0.00000000E+00
  0.00000000E+00  0.00000000E+00  0.00000000E+00
  0.00000000E+00  0.00000000E+00  0.00000000E+00
  0.00000000E+00  0.00000000E+00  0.00000000E+00
  0.00000000E+00  0.00000000E+00  0.00000000E+00
  0.00000000E+00  0.00000000E+00  0.00000000E+00
  0.00000000E+00  0.00000000E+00  0.00000000E+00
  0.00000000E+00  0.00000000E+00  0.00000000E+00
  0.00000000E+00  0.00000000E+00  0.00000000E+00
  0.00000000E+00  0.00000000E+00  0.00000000E+00
  0.00000000E+00  0.00000000E+00  0.00000000E+00
  0.00000000E+00  0.00000000E+00  0.00000000E+00
  0.00000000E+00  0.00000000E+00  0.00000000E+00
  0.00000000E+00  0.00000000E+00  0.00000000E+00
  0.00000000E+00  0.00000000E+00  0.00000000E+00
  0.00000000E+00  0.00000000E+00  0.00000000E+00
  0.00000000E+00  0.00000000E+00  0.00000000E+00
  0.00000000E+00  0.00000000E+00  0.00000000E+00
  0.00000000E+00  0.00000000E+00  0.00000000E+00
  0.00000000E+00  0.00000000E+00  0.00000000E+00
  0.00000000E+00  0.00000000E+00  0.00000000E+00
  0.00000000E+00  0.00000000E+00  0.00000000E+00
  0.00000000E+00  0.00000000E+00  0.00000000E+00
  0.00000000E+00  0.00000000E+00  0.00000000E+00
  0.00000000E+00  0.00000000E+00  0.00000000E+00
  0.00000000E+00  0.00000000E+00  0.00000000E+00
  0.00000000E+00  0.00000000E+00  0.00000000E+00
  0.00000000E+00  0.00000000E+00  0.00000000E+00
  0.00000000E+00  0.00000000E+00  0.00000000E+00
  0.00000000E+00  0.00000000E+00  0.00000000E+00
  0.00000000E+00  0.00000000E+00  0.00000000E+00
  0.00000000E+00  0.00000000E+00  0.00000000E+00
  0.00000000E+00  0.00000000E+00  0.00000000E+00
  0.00000000E+00  0.00000000E+00  0.00000000E+00
  0.00000000E+00  0.00000000E+00  0.00000000E+00
  0.00000000E+00  0.00000000E+00  0.00000000E+00
  0.00000000E+00  0.00000000E+00  0.00000000E+00
  0.00000000E+00  0.00000000E+00  0.00000000E+00
  0.00000000E+00  0.00000000E+00  0.00000000E+00
  0.00000000E+00  0.00000000E+00  0.00000000E+00
  0.00000000E+00  0.00000000E+00  0.00000000E+00
  0.00000000E+00  0.00000000E+00  0.00000000E+00
  0.00000000E+00  0.00000000E+00  0.00000000E+00
  0.00000000E+00  0.00000000E+00  0.00000000E+00
  0.00000000E+00  0.00000000E+00  0.00000000E+00
  0.00000000E+00  0.00000000E+00  0.00000000E+00
  0.00000000E+00  0.00000000E+00  0.00000000E+00
  0.00000000E+00  0.00000000E+00  0.00000000E+00
  0.00000000E+00  0.00000000E+00  0.00000000E+00
  0.00000000E+00  0.00000000E+00  0.00000000E+00
  0.00000000E+00  0.00000000E+00  0.00000000E+00
  0.00000000E+00  0.00000000E+00  0.00000000E+00
  0.00000000E+00  0.00000000E+00  0.00000000E+00
  0.00000000E+00  0.00000000E+00  0.00000000E+00
  0.00000000E+00  0.00000000E+00  0.00000000E+00
  0.00000000E+00  0.00000000E+00  0.00000000E+00
  0.00000000E+00  0.00000000E+00  0.00000000E+00
  0.00000000E+00  0.00000000E+00  0.00000000E+00
  0.00000000E+00  0.00000000E+00  0.00000000E+00
  0.00000000E+00  0.00000000E+00  0.00000000E+00
  0.00000000E+00  0.00000000E+00  0.00000000E+00
  0.00000000E+00  0.00000000E+00  0.00000000E+00
  0.00000000E+00  0.00000000E+00  0.00000000E+00
  0.00000000E+00  0.00000000E+00  0.00000000E+00
  0.00000000E+00  0.00000000E+00  0.00000000E+00
  0.00000000E+00  0.00000000E+00  0.00000000E+00
  0.00000000E+00  0.00000000E+00  0.00000000E+00
  0.00000000E+00  0.00000000E+00  0.00000000E+00
  0.00000000E+00  0.00000000E+00  0.00000000E+00
  0.00000000E+00  0.00000000E+00  0.00000000E+00
  0.00000000E+00  0.00000000E+00  0.00000000E+00
  0.00000000E+00  0.00000000E+00  0.00000000E+00
  0.00000000E+00  0.00000000E+00  0.00000000E+00
  0.00000000E+00  0.00000000E+00  0.00000000E+00
  0.00000000E+00  0.00000000E+00  0.00000000E+00
  0.00000000E+00  0.00000000E+00  0.00000000E+00
  0.00000000E+00  0.00000000E+00  0.00000000E+00
  0.00000000E+00  0.00000000E+00  0.00000000E+00
  0.00000000E+00  0.00000000E+00  0.00000000E+00
  0.00000000E+00  0.00000000E+00  0.00000000E+00
  0.00000000E+00  0.00000000E+00  0.00000000E+00
  0.00000000E+00  0.00000000E+00  0.00000000E+00
  0.00000000E+00  0.00000000E+00  0.00000000E+00
  0.00000000E+00  0.00000000E+00  0.00000000E+00
  0.00000000E+00  0.00000000E+00  0.00000000E+00
  0.00000000E+00  0.00000000E+00  0.00000000E+00
  0.00000000E+00  0.00000000E+00  0.00000000E+00
  0.00000000E+00  0.00000000E+00  0.00000000E+00
  0.00000000E+00  0.00000000E+00  0.00000000E+00
  0.00000000E+00  0.00000000E+00  0.00000000E+00
  0.00000000E+00  0.00000000E+00  0.00000000E+00
  0.00000000E+00  0.00000000E+00  0.00000000E+00
  0.00000000E+00  0.00000000E+00  0.00000000E+00
  0.00000000E+00  0.00000000E+00  0.00000000E+00
  0.00000000E+00  0.00000000E+00  0.00000000E+00
  0.00000000E+00  0.00000000E+00  0.00000000E+00
  0.00000000E+00  0.00000000E+00  0.00000000E+00
  0.00000000E+00  0.00000000E+00  0.00000000E+00
