ba8 si16                                
   1.00000000000000     
   104.1227354113591872    0.0000000000000000    0.0010545618552193
     0.0000000000000000    6.7061651632633099    0.0000000000000000
     0.0001038627839430    0.0000000000000000   11.4792076120976851
   Ba   Si
    80   160
Direct
  0.0031755068921209  0.2500000000663931  0.7011383214517583
  0.0871984598092827  0.2500000000663931  0.6910202904372114
  0.1728163719080769  0.2500000000663931  0.6914583049744041
  0.2585563859564202  0.2500000000663931  0.6912773052674999
  0.3442690168667000  0.2500000000663931  0.6916427910685465
  0.4299874007287126  0.2500000000663931  0.6915362120044098
  0.5157342912131885  0.2500000000663931  0.6914821761140505
  0.6014266904158364  0.2500000000663931  0.6918681718168139
  0.6871881951719550  0.2500000000663931  0.6914517253791329
  0.7728981819116517  0.2500000000663931  0.6918747922113818
  0.0843733311953709  0.7500000176088264  0.3081252078144749
  0.1700833814587392  0.7500000176088264  0.3085482746467234
  0.2558448680693234  0.7500000176088264  0.3081318282090430
  0.3415373035725691  0.7500000176088264  0.3085178239118063
  0.4272841577659610  0.7500000176088264  0.3084637880214467
  0.5130025416184526  0.7500000176088264  0.3083572089573101
  0.5987152269748789  0.7500000176088264  0.3087226947583566
  0.6844551502859915  0.7500000176088264  0.3085416950514522
  0.7700730714528026  0.7500000176088264  0.3089797095886452
  0.8540960246554182  0.7500000176088264  0.2988616785740982
  0.0405323471382864  0.7500000176088264  0.1930489169950520
  0.1272080009405279  0.7500000176088264  0.1914351356432502
  0.2129681244006982  0.7500000176088264  0.1915017252542630
  0.2986768534676112  0.7500000176088264  0.1912184824167825
  0.3844234583484373  0.7500000176088264  0.1918372766045514
  0.4701257515283524  0.7500000176088264  0.1913869310047704
  0.5558685812550271  0.7500000176088264  0.1917867811673329
  0.6416038075177736  0.7500000176088264  0.1917866580385594
  0.7273162820640939  0.7500000176088264  0.1910079520283296
  0.8127918480043816  0.7500000176088264  0.1918822042219905
  0.0444797195487880  0.2500000000663931  0.8081177752042231
  0.1299552854985966  0.2500000000663931  0.8089920273978839
  0.2156677509673859  0.2500000000663931  0.8082133213876548
  0.3014030316762722  0.2500000000663931  0.8082131982588809
  0.3871458432574050  0.2500000000663931  0.8086130484214432
  0.4728481001367220  0.2500000000663931  0.8081627028216629
  0.5585947594636881  0.2500000000663931  0.8087814970094312
  0.6443034340844611  0.2500000000663931  0.8084982541719511
  0.7300635575446245  0.2500000000663931  0.8085648437829632
  0.8167392022693413  0.2500000000663931  0.8069510624311618
  0.0183112521832426  0.7500000176088264  0.9117769699990810
  0.0997105694262163  0.7500000176088264  0.9064048857797700
  0.1852785405095263  0.7500000176088264  0.9060841910826775
  0.2709441215489926  0.7500000176088264  0.9056175237513753
  0.3567009880148803  0.7500000176088264  0.9061084083270836
  0.4424491899172015  0.7500000176088264  0.9059474672732066
  0.5281288752188470  0.7500000176088264  0.9060800379048736
  0.6139024305051237  0.7500000176088264  0.9063088960082664
  0.6995867110663463  0.7500000176088264  0.9056927275363822
  0.7856747458420541  0.7500000176088264  0.9069550632379427
  0.0715967899587943  0.2500000000663931  0.0930449161882713
  0.1576848292637568  0.2500000000663931  0.0943072518898319
  0.2433691098344865  0.2500000000663931  0.0936910834179473
  0.3291427195669109  0.2500000000663931  0.0939199415213403
  0.4148223685679507  0.2500000000663931  0.0940525121530075
  0.5005705341696740  0.2500000000663931  0.0938915710991302
  0.5863274187906244  0.2500000000663931  0.0943824556748385
  0.6719929635294857  0.2500000000663931  0.0939157883435360
  0.7575610072139990  0.2500000000663931  0.0935950936464438
  0.8389602518557695  0.2500000000663931  0.0882230094271326
  0.0296496711964278  0.2500000000663931  0.3951957684942033
  0.1148080040395915  0.2500000000663931  0.4054804116067144
  0.2005646953967975  0.2500000000663931  0.4059566187418955
  0.2862609632412389  0.2500000000663931  0.4057429087989803
  0.3719742711361548  0.2500000000663931  0.4061123837040215
  0.4577332213185445  0.2500000000663931  0.4058999523717157
  0.5433972236890382  0.2500000000663931  0.4061440153131311
  0.6291474478596125  0.2500000000663931  0.4062327331251239
  0.7148875155578311  0.2500000000663931  0.4060331840975391
  0.8003484308607077  0.2500000000663931  0.4049521417231274
  0.0569231094789024  0.7500000176088264  0.5950478994158189
  0.1423840973734682  0.7500000176088264  0.5939668570414075
  0.2281240924704834  0.7500000176088264  0.5937673080138227
  0.3138744073878035  0.7500000176088264  0.5938560258258154
  0.3995383734672058  0.7500000176088264  0.5941000887672309
  0.4852972873490046  0.7500000176088264  0.5938876574349253
  0.5710106133894556  0.7500000176088264  0.5942571323399665
  0.6567068812434180  0.7500000176088264  0.5940434223970509
  0.7424635725911030  0.7500000176088264  0.5945196295322320
  0.8276218328425844  0.7500000176088264  0.6048042726447430
  0.0155984821852305  0.0715743921675606  0.1448053863304458
  0.1021055106106727  0.0704541232369157  0.1461431909278585
  0.1879512549339231  0.0703832029355113  0.1463502895877725
  0.2736425432136376  0.0703832822845380  0.1458073508011427
  0.3594126631244414  0.0703758144081355  0.1463292562234880
  0.4450973226389759  0.0703807139923225  0.1460248230885147
  0.5308405264121716  0.0703839047125938  0.1462206454471994
  0.6166010422040543  0.0703927307210509  0.1464737867243459
  0.7022539796264849  0.0702884684605940  0.1461079682440085
  0.7875636292320717  0.0700816654509142  0.1455495138770382
  0.0697079065687764  0.9299183256672094  0.8544504656353723
  0.1550175607131256  0.9297115226575298  0.8538920112684013
  0.2406704981355628  0.9296072603970726  0.8535261927880641
  0.3264310320729880  0.9296160864055295  0.8537793340652106
  0.4121742358556905  0.9296192771258011  0.8539751564238949
  0.4978589316613160  0.9296241767099879  0.8536707232889216
  0.5836290515625988  0.9296167088335857  0.8541926287112673
  0.6693203216967782  0.9296167881826123  0.8536496899246370
  0.7551660750975528  0.9295458678812079  0.8538567885845515
  0.8416730978519192  0.9284255989505630  0.8551945931819640
  0.0266761339703140  0.9283839323336144  0.6417746897313357
  0.1121374955473848  0.9295608880540485  0.6458601269267363
  0.1978422632981595  0.9296132511079191  0.6460595596400427
  0.2835998285286139  0.9296253941253607  0.6458282125520149
  0.3692745515678106  0.9296257927718935  0.6463066242345404
  0.4550121676048818  0.9296847059228595  0.6459945965632081
  0.5407531495129094  0.9296108792720830  0.6463220673860769
  0.6264283493472710  0.9296194448901260  0.6463267961862723
  0.7122343574886172  0.9295963412555857  0.6461242219004236
  0.7979510331212948  0.9302597307935135  0.6468398964364694
  0.0593205117475632  0.0697402603246096  0.3531601035893873
  0.1450371919285245  0.0704036498625380  0.3538757781254331
  0.2308431909923394  0.0703805462279973  0.3536732038395843
  0.3165184452728477  0.0703891118460404  0.3536779326397794
  0.4022593908897917  0.0703152851952639  0.3540054034626484
  0.4879970432179468  0.0703741983462303  0.3536933757913162
  0.5736717662476296  0.0703745969927626  0.3541717874738417
  0.6594293133325343  0.0703867400102048  0.3539404403858141
  0.7451340810928309  0.0704391030640748  0.3541398730991203
  0.8305954381216181  0.0716160587845089  0.3582253102945211
  0.0697079065687764  0.5700816742885237  0.8544504656353723
  0.1550175607131256  0.5702884772982034  0.8538920112684013
  0.2406704981355628  0.5703927395586605  0.8535261927880641
  0.3264310320729880  0.5703839135502037  0.8537793340652106
  0.4121742358556905  0.5703807228299321  0.8539751564238949
  0.4978589316613160  0.5703758232457453  0.8536707232889216
  0.5836290515625988  0.5703832911221475  0.8541926287112673
  0.6693203216967782  0.5703832117731209  0.8536496899246370
  0.7551660750975528  0.5704541320745253  0.8538567885845515
  0.8416730978519192  0.5715744010051702  0.8551945931819640
  0.0155984821852305  0.4284255989653209  0.1448053863304458
  0.1021055106106727  0.4295458678959657  0.1461431909278585
  0.1879512549339231  0.4296167881973701  0.1463502895877725
  0.2736425432136376  0.4296167088483436  0.1458073508011427
  0.3594126631244414  0.4296241767247460  0.1463292562234880
  0.4450973226389759  0.4296192771405591  0.1460248230885147
  0.5308405264121716  0.4296160864202874  0.1462206454471994
  0.6166010422040543  0.4296072604118306  0.1464737867243459
  0.7022539796264849  0.4297115226722876  0.1461079682440085
  0.7875636292320717  0.4299183256819671  0.1455495138770382
  0.0593205117475632  0.4302597308082718  0.3531601035893873
  0.1450371919285245  0.4295963412703435  0.3538757781254331
  0.2308431909923394  0.4296194449048841  0.3536732038395843
  0.3165184452728477  0.4296108792868413  0.3536779326397794
  0.4022593908897917  0.4296847059376177  0.3540054034626484
  0.4879970432179468  0.4296257927866513  0.3536933757913162
  0.5736717662476296  0.4296253941401187  0.3541717874738417
  0.6594293133325343  0.4296132511226766  0.3539404403858141
  0.7451340810928309  0.4295608880688067  0.3541398730991203
  0.8305954381216181  0.4283839323483725  0.3582253102945211
  0.0266761339703140  0.5716160676221188  0.6417746897313357
  0.1121374955473848  0.5704391119016847  0.6458601269267363
  0.1978422632981595  0.5703867488478140  0.6460595596400427
  0.2835998285286139  0.5703746058303725  0.6458282125520149
  0.3692745515678106  0.5703742071838397  0.6463066242345404
  0.4550121676048818  0.5703152940328737  0.6459945965632081
  0.5407531495129094  0.5703891206836502  0.6463220673860769
  0.6264283493472710  0.5703805550656071  0.6463267961862723
  0.7122343574886172  0.5704036587001475  0.6461242219004236
  0.7979510331212948  0.5697402691622196  0.6468398964364694
  0.0063597416049820  0.7500000176088264  0.6182986173815587
  0.0928472353734854  0.7500000176088264  0.5915070858601735
  0.1785636249534330  0.7500000176088264  0.5911552619416564
  0.2643181161130473  0.7500000176088264  0.5911539303931823
  0.3499803655608594  0.7500000176088264  0.5916759698445951
  0.4357342613813219  0.7500000176088264  0.5911775258965352
  0.5214675203125064  0.7500000176088264  0.5915088501629658
  0.6071341889599200  0.7500000176088264  0.5917329273398150
  0.6929537979608376  0.7500000176088264  0.5912683343909435
  0.7787375982488040  0.7500000176088264  0.5918001248576846
  0.0785339874594220  0.2500000000663931  0.4081998750819835
  0.1643177968249200  0.2500000000663931  0.4087316655487245
  0.2501374058258379  0.2500000000663931  0.4082670725998526
  0.3358040744732510  0.2500000000663931  0.4084911497767018
  0.4215373333949142  0.2500000000663931  0.4088224740431328
  0.5072911929243000  0.2500000000663931  0.4083240300950726
  0.5929534605271689  0.2500000000663931  0.4088460695464854
  0.6787079153861846  0.2500000000663931  0.4088447379980117
  0.7644242958886003  0.2500000000663931  0.4084929140794942
  0.8509117885247902  0.2500000000663931  0.3817013825581092
  0.0352511645749347  0.2500000000663931  0.0821993398778108
  0.1214217950466656  0.2500000000663931  0.0918003686325856
  0.2072337370237632  0.2500000000663931  0.0914296532973631
  0.2929219246291399  0.2500000000663931  0.0909786141997814
  0.3787120613670720  0.2500000000663931  0.0918367218235143
  0.4643782516231403  0.2500000000663931  0.0913802266974407
  0.5501270922779417  0.2500000000663931  0.0916028155253794
  0.6358871493594913  0.2500000000663931  0.0917264628378929
  0.7215225680343051  0.2500000000663931  0.0913586283042044
  0.8067015015144480  0.2500000000663931  0.0908657382026643
  0.0505699934565539  0.7500000176088264  0.9091342412235495
  0.1357489995283784  0.7500000176088264  0.9086413511220092
  0.2213844091256681  0.7500000176088264  0.9082735165883208
  0.3071445025078149  0.7500000176088264  0.9083971639008346
  0.3928933068620119  0.7500000176088264  0.9086197527287728
  0.4785594971180873  0.7500000176088264  0.9081632576026996
  0.5643496520110759  0.7500000176088264  0.9090213652264317
  0.6500378214613888  0.7500000176088264  0.9085703261288507
  0.7358497634384937  0.7500000176088264  0.9081996107936283
  0.8220203871068280  0.7500000176088264  0.9178006395484034
  0.0157575671872859  0.2500000000663931  0.9622828346701696
  0.1024830767198966  0.2500000000663931  0.9644825641907973
  0.1882638504460110  0.2500000000663931  0.9646077617750999
  0.2739601566129137  0.2500000000663931  0.9640593972997380
  0.3597712140628213  0.2500000000663931  0.9646376171614379
  0.4454192032588734  0.2500000000663931  0.9643539019535635
  0.5311815405454803  0.2500000000663931  0.9644812475638659
  0.6169225314570581  0.2500000000663931  0.9647474296355958
  0.7025724991505674  0.2500000000663931  0.9643747690095318
  0.7882212433393921  0.2500000000663931  0.9629737434812956
  0.0690503378395858  0.7500000176088264  0.0370262718865502
  0.1546990048884447  0.7500000176088264  0.0356252463583142
  0.2403489907275031  0.7500000176088264  0.0352525857322498
  0.3260900905408753  0.7500000176088264  0.0355187678039801
  0.4118523915173699  0.7500000176088264  0.0356461134142821
  0.4975003444223310  0.7500000176088264  0.0353623982064081
  0.5833114200273020  0.7500000176088264  0.0359406180681074
  0.6690076898936062  0.7500000176088264  0.0353922535927459
  0.7547884636197137  0.7500000176088264  0.0355174511770487
  0.8415139674812556  0.7500000176088264  0.0377171806976761
  0.0222023969881230  0.7500000176088264  0.4617799398941068
  0.1117938360813196  0.7500000176088264  0.4641494276263332
  0.1975321125665741  0.7500000176088264  0.4642876974047206
  0.2832856559170401  0.7500000176088264  0.4641461427415071
  0.3689309519494636  0.7500000176088264  0.4645858015721857
  0.4547074297227375  0.7500000176088264  0.4643133266671749
  0.5404287691397378  0.7500000176088264  0.4645765982305271
  0.6260824788684302  0.7500000176088264  0.4646098285698184
  0.7119147019406395  0.7500000176088264  0.4643123247091434
  0.7976487266622850  0.7500000176088264  0.4648796703618445
  0.0596227683087101  0.2500000000663931  0.5351202474378255
  0.1453568746995687  0.2500000000663931  0.5356875930905262
  0.2311890251705820  0.2500000000663931  0.5353900892298513
  0.3168427893454148  0.2500000000663931  0.5354233195691426
  0.4025641287624219  0.2500000000663931  0.5356865911324947
  0.4883406065356957  0.2500000000663931  0.5354141162274840
  0.5739859025776334  0.2500000000663931  0.5358537750581630
  0.6597394277730436  0.2500000000663931  0.5357122203949490
  0.7454777133358291  0.2500000000663931  0.5358504901733361
  0.8350691501548843  0.2500000000663931  0.5382199779055630
 
  0.00000000E+00  0.00000000E+00  0.00000000E+00
  0.00000000E+00  0.00000000E+00  0.00000000E+00
  0.00000000E+00  0.00000000E+00  0.00000000E+00
  0.00000000E+00  0.00000000E+00  0.00000000E+00
  0.00000000E+00  0.00000000E+00  0.00000000E+00
  0.00000000E+00  0.00000000E+00  0.00000000E+00
  0.00000000E+00  0.00000000E+00  0.00000000E+00
  0.00000000E+00  0.00000000E+00  0.00000000E+00
  0.00000000E+00  0.00000000E+00  0.00000000E+00
  0.00000000E+00  0.00000000E+00  0.00000000E+00
  0.00000000E+00  0.00000000E+00  0.00000000E+00
  0.00000000E+00  0.00000000E+00  0.00000000E+00
  0.00000000E+00  0.00000000E+00  0.00000000E+00
  0.00000000E+00  0.00000000E+00  0.00000000E+00
  0.00000000E+00  0.00000000E+00  0.00000000E+00
  0.00000000E+00  0.00000000E+00  0.00000000E+00
  0.00000000E+00  0.00000000E+00  0.00000000E+00
  0.00000000E+00  0.00000000E+00  0.00000000E+00
  0.00000000E+00  0.00000000E+00  0.00000000E+00
  0.00000000E+00  0.00000000E+00  0.00000000E+00
  0.00000000E+00  0.00000000E+00  0.00000000E+00
  0.00000000E+00  0.00000000E+00  0.00000000E+00
  0.00000000E+00  0.00000000E+00  0.00000000E+00
  0.00000000E+00  0.00000000E+00  0.00000000E+00
  0.00000000E+00  0.00000000E+00  0.00000000E+00
  0.00000000E+00  0.00000000E+00  0.00000000E+00
  0.00000000E+00  0.00000000E+00  0.00000000E+00
  0.00000000E+00  0.00000000E+00  0.00000000E+00
  0.00000000E+00  0.00000000E+00  0.00000000E+00
  0.00000000E+00  0.00000000E+00  0.00000000E+00
  0.00000000E+00  0.00000000E+00  0.00000000E+00
  0.00000000E+00  0.00000000E+00  0.00000000E+00
  0.00000000E+00  0.00000000E+00  0.00000000E+00
  0.00000000E+00  0.00000000E+00  0.00000000E+00
  0.00000000E+00  0.00000000E+00  0.00000000E+00
  0.00000000E+00  0.00000000E+00  0.00000000E+00
  0.00000000E+00  0.00000000E+00  0.00000000E+00
  0.00000000E+00  0.00000000E+00  0.00000000E+00
  0.00000000E+00  0.00000000E+00  0.00000000E+00
  0.00000000E+00  0.00000000E+00  0.00000000E+00
  0.00000000E+00  0.00000000E+00  0.00000000E+00
  0.00000000E+00  0.00000000E+00  0.00000000E+00
  0.00000000E+00  0.00000000E+00  0.00000000E+00
  0.00000000E+00  0.00000000E+00  0.00000000E+00
  0.00000000E+00  0.00000000E+00  0.00000000E+00
  0.00000000E+00  0.00000000E+00  0.00000000E+00
  0.00000000E+00  0.00000000E+00  0.00000000E+00
  0.00000000E+00  0.00000000E+00  0.00000000E+00
  0.00000000E+00  0.00000000E+00  0.00000000E+00
  0.00000000E+00  0.00000000E+00  0.00000000E+00
  0.00000000E+00  0.00000000E+00  0.00000000E+00
  0.00000000E+00  0.00000000E+00  0.00000000E+00
  0.00000000E+00  0.00000000E+00  0.00000000E+00
  0.00000000E+00  0.00000000E+00  0.00000000E+00
  0.00000000E+00  0.00000000E+00  0.00000000E+00
  0.00000000E+00  0.00000000E+00  0.00000000E+00
  0.00000000E+00  0.00000000E+00  0.00000000E+00
  0.00000000E+00  0.00000000E+00  0.00000000E+00
  0.00000000E+00  0.00000000E+00  0.00000000E+00
  0.00000000E+00  0.00000000E+00  0.00000000E+00
  0.00000000E+00  0.00000000E+00  0.00000000E+00
  0.00000000E+00  0.00000000E+00  0.00000000E+00
  0.00000000E+00  0.00000000E+00  0.00000000E+00
  0.00000000E+00  0.00000000E+00  0.00000000E+00
  0.00000000E+00  0.00000000E+00  0.00000000E+00
  0.00000000E+00  0.00000000E+00  0.00000000E+00
  0.00000000E+00  0.00000000E+00  0.00000000E+00
  0.00000000E+00  0.00000000E+00  0.00000000E+00
  0.00000000E+00  0.00000000E+00  0.00000000E+00
  0.00000000E+00  0.00000000E+00  0.00000000E+00
  0.00000000E+00  0.00000000E+00  0.00000000E+00
  0.00000000E+00  0.00000000E+00  0.00000000E+00
  0.00000000E+00  0.00000000E+00  0.00000000E+00
  0.00000000E+00  0.00000000E+00  0.00000000E+00
  0.00000000E+00  0.00000000E+00  0.00000000E+00
  0.00000000E+00  0.00000000E+00  0.00000000E+00
  0.00000000E+00  0.00000000E+00  0.00000000E+00
  0.00000000E+00  0.00000000E+00  0.00000000E+00
  0.00000000E+00  0.00000000E+00  0.00000000E+00
  0.00000000E+00  0.00000000E+00  0.00000000E+00
  0.00000000E+00  0.00000000E+00  0.00000000E+00
  0.00000000E+00  0.00000000E+00  0.00000000E+00
  0.00000000E+00  0.00000000E+00  0.00000000E+00
  0.00000000E+00  0.00000000E+00  0.00000000E+00
  0.00000000E+00  0.00000000E+00  0.00000000E+00
  0.00000000E+00  0.00000000E+00  0.00000000E+00
  0.00000000E+00  0.00000000E+00  0.00000000E+00
  0.00000000E+00  0.00000000E+00  0.00000000E+00
  0.00000000E+00  0.00000000E+00  0.00000000E+00
  0.00000000E+00  0.00000000E+00  0.00000000E+00
  0.00000000E+00  0.00000000E+00  0.00000000E+00
  0.00000000E+00  0.00000000E+00  0.00000000E+00
  0.00000000E+00  0.00000000E+00  0.00000000E+00
  0.00000000E+00  0.00000000E+00  0.00000000E+00
  0.00000000E+00  0.00000000E+00  0.00000000E+00
  0.00000000E+00  0.00000000E+00  0.00000000E+00
  0.00000000E+00  0.00000000E+00  0.00000000E+00
  0.00000000E+00  0.00000000E+00  0.00000000E+00
  0.00000000E+00  0.00000000E+00  0.00000000E+00
  0.00000000E+00  0.00000000E+00  0.00000000E+00
  0.00000000E+00  0.00000000E+00  0.00000000E+00
  0.00000000E+00  0.00000000E+00  0.00000000E+00
  0.00000000E+00  0.00000000E+00  0.00000000E+00
  0.00000000E+00  0.00000000E+00  0.00000000E+00
  0.00000000E+00  0.00000000E+00  0.00000000E+00
  0.00000000E+00  0.00000000E+00  0.00000000E+00
  0.00000000E+00  0.00000000E+00  0.00000000E+00
  0.00000000E+00  0.00000000E+00  0.00000000E+00
  0.00000000E+00  0.00000000E+00  0.00000000E+00
  0.00000000E+00  0.00000000E+00  0.00000000E+00
  0.00000000E+00  0.00000000E+00  0.00000000E+00
  0.00000000E+00  0.00000000E+00  0.00000000E+00
  0.00000000E+00  0.00000000E+00  0.00000000E+00
  0.00000000E+00  0.00000000E+00  0.00000000E+00
  0.00000000E+00  0.00000000E+00  0.00000000E+00
  0.00000000E+00  0.00000000E+00  0.00000000E+00
  0.00000000E+00  0.00000000E+00  0.00000000E+00
  0.00000000E+00  0.00000000E+00  0.00000000E+00
  0.00000000E+00  0.00000000E+00  0.00000000E+00
  0.00000000E+00  0.00000000E+00  0.00000000E+00
  0.00000000E+00  0.00000000E+00  0.00000000E+00
  0.00000000E+00  0.00000000E+00  0.00000000E+00
  0.00000000E+00  0.00000000E+00  0.00000000E+00
  0.00000000E+00  0.00000000E+00  0.00000000E+00
  0.00000000E+00  0.00000000E+00  0.00000000E+00
  0.00000000E+00  0.00000000E+00  0.00000000E+00
  0.00000000E+00  0.00000000E+00  0.00000000E+00
  0.00000000E+00  0.00000000E+00  0.00000000E+00
  0.00000000E+00  0.00000000E+00  0.00000000E+00
  0.00000000E+00  0.00000000E+00  0.00000000E+00
  0.00000000E+00  0.00000000E+00  0.00000000E+00
  0.00000000E+00  0.00000000E+00  0.00000000E+00
  0.00000000E+00  0.00000000E+00  0.00000000E+00
  0.00000000E+00  0.00000000E+00  0.00000000E+00
  0.00000000E+00  0.00000000E+00  0.00000000E+00
  0.00000000E+00  0.00000000E+00  0.00000000E+00
  0.00000000E+00  0.00000000E+00  0.00000000E+00
  0.00000000E+00  0.00000000E+00  0.00000000E+00
  0.00000000E+00  0.00000000E+00  0.00000000E+00
  0.00000000E+00  0.00000000E+00  0.00000000E+00
  0.00000000E+00  0.00000000E+00  0.00000000E+00
  0.00000000E+00  0.00000000E+00  0.00000000E+00
  0.00000000E+00  0.00000000E+00  0.00000000E+00
  0.00000000E+00  0.00000000E+00  0.00000000E+00
  0.00000000E+00  0.00000000E+00  0.00000000E+00
  0.00000000E+00  0.00000000E+00  0.00000000E+00
  0.00000000E+00  0.00000000E+00  0.00000000E+00
  0.00000000E+00  0.00000000E+00  0.00000000E+00
  0.00000000E+00  0.00000000E+00  0.00000000E+00
  0.00000000E+00  0.00000000E+00  0.00000000E+00
  0.00000000E+00  0.00000000E+00  0.00000000E+00
  0.00000000E+00  0.00000000E+00  0.00000000E+00
  0.00000000E+00  0.00000000E+00  0.00000000E+00
  0.00000000E+00  0.00000000E+00  0.00000000E+00
  0.00000000E+00  0.00000000E+00  0.00000000E+00
  0.00000000E+00  0.00000000E+00  0.00000000E+00
  0.00000000E+00  0.00000000E+00  0.00000000E+00
  0.00000000E+00  0.00000000E+00  0.00000000E+00
  0.00000000E+00  0.00000000E+00  0.00000000E+00
  0.00000000E+00  0.00000000E+00  0.00000000E+00
  0.00000000E+00  0.00000000E+00  0.00000000E+00
  0.00000000E+00  0.00000000E+00  0.00000000E+00
  0.00000000E+00  0.00000000E+00  0.00000000E+00
  0.00000000E+00  0.00000000E+00  0.00000000E+00
  0.00000000E+00  0.00000000E+00  0.00000000E+00
  0.00000000E+00  0.00000000E+00  0.00000000E+00
  0.00000000E+00  0.00000000E+00  0.00000000E+00
  0.00000000E+00  0.00000000E+00  0.00000000E+00
  0.00000000E+00  0.00000000E+00  0.00000000E+00
  0.00000000E+00  0.00000000E+00  0.00000000E+00
  0.00000000E+00  0.00000000E+00  0.00000000E+00
  0.00000000E+00  0.00000000E+00  0.00000000E+00
  0.00000000E+00  0.00000000E+00  0.00000000E+00
  0.00000000E+00  0.00000000E+00  0.00000000E+00
  0.00000000E+00  0.00000000E+00  0.00000000E+00
  0.00000000E+00  0.00000000E+00  0.00000000E+00
  0.00000000E+00  0.00000000E+00  0.00000000E+00
  0.00000000E+00  0.00000000E+00  0.00000000E+00
  0.00000000E+00  0.00000000E+00  0.00000000E+00
  0.00000000E+00  0.00000000E+00  0.00000000E+00
  0.00000000E+00  0.00000000E+00  0.00000000E+00
  0.00000000E+00  0.00000000E+00  0.00000000E+00
  0.00000000E+00  0.00000000E+00  0.00000000E+00
  0.00000000E+00  0.00000000E+00  0.00000000E+00
  0.00000000E+00  0.00000000E+00  0.00000000E+00
  0.00000000E+00  0.00000000E+00  0.00000000E+00
  0.00000000E+00  0.00000000E+00  0.00000000E+00
  0.00000000E+00  0.00000000E+00  0.00000000E+00
  0.00000000E+00  0.00000000E+00  0.00000000E+00
  0.00000000E+00  0.00000000E+00  0.00000000E+00
  0.00000000E+00  0.00000000E+00  0.00000000E+00
  0.00000000E+00  0.00000000E+00  0.00000000E+00
  0.00000000E+00  0.00000000E+00  0.00000000E+00
  0.00000000E+00  0.00000000E+00  0.00000000E+00
  0.00000000E+00  0.00000000E+00  0.00000000E+00
  0.00000000E+00  0.00000000E+00  0.00000000E+00
  0.00000000E+00  0.00000000E+00  0.00000000E+00
  0.00000000E+00  0.00000000E+00  0.00000000E+00
  0.00000000E+00  0.00000000E+00  0.00000000E+00
  0.00000000E+00  0.00000000E+00  0.00000000E+00
  0.00000000E+00  0.00000000E+00  0.00000000E+00
  0.00000000E+00  0.00000000E+00  0.00000000E+00
  0.00000000E+00  0.00000000E+00  0.00000000E+00
  0.00000000E+00  0.00000000E+00  0.00000000E+00
  0.00000000E+00  0.00000000E+00  0.00000000E+00
  0.00000000E+00  0.00000000E+00  0.00000000E+00
  0.00000000E+00  0.00000000E+00  0.00000000E+00
  0.00000000E+00  0.00000000E+00  0.00000000E+00
  0.00000000E+00  0.00000000E+00  0.00000000E+00
  0.00000000E+00  0.00000000E+00  0.00000000E+00
  0.00000000E+00  0.00000000E+00  0.00000000E+00
  0.00000000E+00  0.00000000E+00  0.00000000E+00
  0.00000000E+00  0.00000000E+00  0.00000000E+00
  0.00000000E+00  0.00000000E+00  0.00000000E+00
  0.00000000E+00  0.00000000E+00  0.00000000E+00
  0.00000000E+00  0.00000000E+00  0.00000000E+00
  0.00000000E+00  0.00000000E+00  0.00000000E+00
  0.00000000E+00  0.00000000E+00  0.00000000E+00
  0.00000000E+00  0.00000000E+00  0.00000000E+00
  0.00000000E+00  0.00000000E+00  0.00000000E+00
  0.00000000E+00  0.00000000E+00  0.00000000E+00
  0.00000000E+00  0.00000000E+00  0.00000000E+00
  0.00000000E+00  0.00000000E+00  0.00000000E+00
  0.00000000E+00  0.00000000E+00  0.00000000E+00
  0.00000000E+00  0.00000000E+00  0.00000000E+00
  0.00000000E+00  0.00000000E+00  0.00000000E+00
  0.00000000E+00  0.00000000E+00  0.00000000E+00
  0.00000000E+00  0.00000000E+00  0.00000000E+00
  0.00000000E+00  0.00000000E+00  0.00000000E+00
  0.00000000E+00  0.00000000E+00  0.00000000E+00
  0.00000000E+00  0.00000000E+00  0.00000000E+00
  0.00000000E+00  0.00000000E+00  0.00000000E+00
  0.00000000E+00  0.00000000E+00  0.00000000E+00
  0.00000000E+00  0.00000000E+00  0.00000000E+00
  0.00000000E+00  0.00000000E+00  0.00000000E+00
  0.00000000E+00  0.00000000E+00  0.00000000E+00
  0.00000000E+00  0.00000000E+00  0.00000000E+00
  0.00000000E+00  0.00000000E+00  0.00000000E+00
  0.00000000E+00  0.00000000E+00  0.00000000E+00
  0.00000000E+00  0.00000000E+00  0.00000000E+00
