ba8 si16                                
   1.00000000000000     
    24.0094680786000012    0.0000000000000000    0.0000000000000000
     0.0000000000000000    6.7778496741999996    0.0000000000000000
     0.0000000000000000    0.0000000000000000   11.6021432877000006
   Ba   Si
     8    16
Selective dynamics
Direct
  0.0056936146836932  0.2500000000663931  0.7049288912954849   F   T   T
  0.3570577832018316  0.7500000176088264  0.2950711087303716   F   T   T
  0.1819296202106742  0.7500000176088264  0.1887297156186205   F   T   T
  0.1808217764253399  0.2500000000663931  0.8112702638075934   F   T   T
  0.0597801408303269  0.7500000176088264  0.9222735838395085   F   T   T
  0.3029712558473392  0.2500000000663931  0.0777263955867055   F   T   T
  0.1278430928145298  0.2500000000663931  0.4041887012873392   F   T   T
  0.2349083038214843  0.7500000176088264  0.5958113398516074   F   T   T
  0.0728991332615152  0.0716222400239343  0.1526615549762569   F   T   T
  0.2898522634161509  0.9283777510941895  0.8473384245361532   F   T   T
  0.1147241003833415  0.9277152556433039  0.6530200201727547   F   T   T
  0.2480272962526726  0.0722847354748194  0.3469799798531021   F   T   T
  0.2898522634161509  0.5716222488615437  0.8473384245361532   F   T   T
  0.0728991332615152  0.4283777511089475  0.1526615549762569   F   T   T
  0.2480272962526726  0.4277152556580619  0.3469799798531021   F   T   T
  0.1147241003833415  0.5722847443124293  0.6530200201727547   F   T   T
  0.0311098080788312  0.7500000176088264  0.5933045545679067   F   T   T
  0.3316415811434439  0.2500000000663931  0.4066954453717614   F   T   T
  0.1565134280650469  0.2500000000663931  0.0922696792310588   F   T   T
  0.2062379785253725  0.7500000176088264  0.9077303001951549   F   T   T
  0.0741839757202953  0.2500000000663931  0.9711268513958944   F   T   T
  0.2885674160009941  0.7500000176088264  0.0288731639719517   F   T   T
  0.1134392529681918  0.7500000176088264  0.4702724002285719   F   T   T
  0.2493121436678223  0.2500000000663931  0.5297275175710984   F   T   T
 
  0.00000000E+00  0.00000000E+00  0.00000000E+00
  0.00000000E+00  0.00000000E+00  0.00000000E+00
  0.00000000E+00  0.00000000E+00  0.00000000E+00
  0.00000000E+00  0.00000000E+00  0.00000000E+00
  0.00000000E+00  0.00000000E+00  0.00000000E+00
  0.00000000E+00  0.00000000E+00  0.00000000E+00
  0.00000000E+00  0.00000000E+00  0.00000000E+00
  0.00000000E+00  0.00000000E+00  0.00000000E+00
  0.00000000E+00  0.00000000E+00  0.00000000E+00
  0.00000000E+00  0.00000000E+00  0.00000000E+00
  0.00000000E+00  0.00000000E+00  0.00000000E+00
  0.00000000E+00  0.00000000E+00  0.00000000E+00
  0.00000000E+00  0.00000000E+00  0.00000000E+00
  0.00000000E+00  0.00000000E+00  0.00000000E+00
  0.00000000E+00  0.00000000E+00  0.00000000E+00
  0.00000000E+00  0.00000000E+00  0.00000000E+00
  0.00000000E+00  0.00000000E+00  0.00000000E+00
  0.00000000E+00  0.00000000E+00  0.00000000E+00
  0.00000000E+00  0.00000000E+00  0.00000000E+00
  0.00000000E+00  0.00000000E+00  0.00000000E+00
  0.00000000E+00  0.00000000E+00  0.00000000E+00
  0.00000000E+00  0.00000000E+00  0.00000000E+00
  0.00000000E+00  0.00000000E+00  0.00000000E+00
  0.00000000E+00  0.00000000E+00  0.00000000E+00
