ba8 si16                                
   1.00000000000000     
    24.0094680786000012    0.0000000000000000    0.0000000000000000
     0.0000000000000000    6.7778496741999996    0.0000000000000000
     0.0000000000000000    0.0000000000000000   11.6021432877000006
   Ba   Si
     8    16
Selective dynamics
Direct
  0.0056936146836932  0.2500000000663931  0.7033308330767643   F   T   T
  0.3528927596505937  0.7500000176088264  0.2966691669490924   F   T   T
  0.1819296202106742  0.7500000176088264  0.1891881643860989   F   T   T
  0.1766567528741092  0.2500000000663931  0.8108118150401147   F   T   T
  0.0597801408303269  0.7500000176088264  0.9231996132317012   F   T   T
  0.2988062322961014  0.2500000000663931  0.0768003661945127   F   T   T
  0.1278430928145298  0.2500000000663931  0.4056092487916211   F   T   T
  0.2307432802702465  0.7500000176088264  0.5943907923473255   F   T   T
  0.0728991332615152  0.0714154257335672  0.1549949505963142   F   T   T
  0.2856872398649131  0.9285845653845562  0.8450050289160954   F   T   T
  0.1147241003833415  0.9275082070186174  0.6506758909029934   F   T   T
  0.2438622727014348  0.0724917840995064  0.3493241091228633   F   T   T
  0.2856872398649131  0.5714154345711769  0.8450050289160954   F   T   T
  0.0728991332615152  0.4285845653993142  0.1549949505963142   F   T   T
  0.2438622727014348  0.4275082070333751  0.3493241091228633   F   T   T
  0.1147241003833415  0.5724917929371158  0.6506758909029934   F   T   T
  0.0311098080788312  0.7500000176088264  0.5905407706411799   F   T   T
  0.3274765575922132  0.2500000000663931  0.4094592292984880   F   T   T
  0.1565134280650469  0.2500000000663931  0.0945572535613969   F   T   T
  0.2020729549741418  0.7500000176088264  0.9054427258648170   F   T   T
  0.0741839757202953  0.2500000000663931  0.9740484344187555   F   T   T
  0.2844023924497634  0.7500000176088264  0.0259515809490901   F   T   T
  0.1134392529681918  0.7500000176088264  0.4676647110733262   F   T   T
  0.2451471201165916  0.2500000000663931  0.5323352067263440   F   T   T
 
  0.00000000E+00  0.00000000E+00  0.00000000E+00
  0.00000000E+00  0.00000000E+00  0.00000000E+00
  0.00000000E+00  0.00000000E+00  0.00000000E+00
  0.00000000E+00  0.00000000E+00  0.00000000E+00
  0.00000000E+00  0.00000000E+00  0.00000000E+00
  0.00000000E+00  0.00000000E+00  0.00000000E+00
  0.00000000E+00  0.00000000E+00  0.00000000E+00
  0.00000000E+00  0.00000000E+00  0.00000000E+00
  0.00000000E+00  0.00000000E+00  0.00000000E+00
  0.00000000E+00  0.00000000E+00  0.00000000E+00
  0.00000000E+00  0.00000000E+00  0.00000000E+00
  0.00000000E+00  0.00000000E+00  0.00000000E+00
  0.00000000E+00  0.00000000E+00  0.00000000E+00
  0.00000000E+00  0.00000000E+00  0.00000000E+00
  0.00000000E+00  0.00000000E+00  0.00000000E+00
  0.00000000E+00  0.00000000E+00  0.00000000E+00
  0.00000000E+00  0.00000000E+00  0.00000000E+00
  0.00000000E+00  0.00000000E+00  0.00000000E+00
  0.00000000E+00  0.00000000E+00  0.00000000E+00
  0.00000000E+00  0.00000000E+00  0.00000000E+00
  0.00000000E+00  0.00000000E+00  0.00000000E+00
  0.00000000E+00  0.00000000E+00  0.00000000E+00
  0.00000000E+00  0.00000000E+00  0.00000000E+00
  0.00000000E+00  0.00000000E+00  0.00000000E+00
