ba8 si16                                
   1.00000000000000     
    24.0094680786000012    0.0000000000000000    0.0000000000000000
     0.0000000000000000    6.7778496741999996    0.0000000000000000
     0.0000000000000000    0.0000000000000000   11.6021432877000006
   Ba   Si
     8    16
Selective dynamics
Direct
  0.0056936146836932  0.2500000000663931  0.7048968772950617   F   T   T
  0.3653878303043001  0.7500000176088264  0.2951031227307948   F   T   T
  0.1819296202106742  0.7500000176088264  0.1887935191574091   F   T   T
  0.1891518235278156  0.2500000000663931  0.8112064602688048   F   T   T
  0.0597801408303269  0.7500000176088264  0.9191638498049051   F   T   T
  0.3113013029498077  0.2500000000663931  0.0808361296213091   F   T   T
  0.1278430928145298  0.2500000000663931  0.4006442515535035   F   T   T
  0.2432383509239529  0.7500000176088264  0.5993557895854431   F   T   T
  0.0728991332615152  0.0716981882328906  0.1478817491220662   F   T   T
  0.2981823105186194  0.9283018028852330  0.8521182303903438   F   T   T
  0.1147241003833415  0.9284251155062647  0.6544886053813456   F   T   T
  0.2563573433551412  0.0715748756118582  0.3455113946445111   F   T   T
  0.2981823105186194  0.5716981970705002  0.8521182303903438   F   T   T
  0.0728991332615152  0.4283018028999908  0.1478817491220662   F   T   T
  0.2563573433551412  0.4284251155210232  0.3455113946445111   F   T   T
  0.1147241003833415  0.5715748844494685  0.6544886053813456   F   T   T
  0.0311098080788312  0.7500000176088264  0.5952567351721030   F   T   T
  0.3399716282459195  0.2500000000663931  0.4047432647675649   F   T   T
  0.1565134280650469  0.2500000000663931  0.0875735916879870   F   T   T
  0.2145680256278482  0.7500000176088264  0.9124263877382267   F   T   T
  0.0741839757202953  0.2500000000663931  0.9654520051068891   F   T   T
  0.2968974631034698  0.7500000176088264  0.0345480102609565   F   T   T
  0.1134392529681918  0.7500000176088264  0.4719381524288717   F   T   T
  0.2576421907702979  0.2500000000663931  0.5280617653707986   F   T   T
 
  0.00000000E+00  0.00000000E+00  0.00000000E+00
  0.00000000E+00  0.00000000E+00  0.00000000E+00
  0.00000000E+00  0.00000000E+00  0.00000000E+00
  0.00000000E+00  0.00000000E+00  0.00000000E+00
  0.00000000E+00  0.00000000E+00  0.00000000E+00
  0.00000000E+00  0.00000000E+00  0.00000000E+00
  0.00000000E+00  0.00000000E+00  0.00000000E+00
  0.00000000E+00  0.00000000E+00  0.00000000E+00
  0.00000000E+00  0.00000000E+00  0.00000000E+00
  0.00000000E+00  0.00000000E+00  0.00000000E+00
  0.00000000E+00  0.00000000E+00  0.00000000E+00
  0.00000000E+00  0.00000000E+00  0.00000000E+00
  0.00000000E+00  0.00000000E+00  0.00000000E+00
  0.00000000E+00  0.00000000E+00  0.00000000E+00
  0.00000000E+00  0.00000000E+00  0.00000000E+00
  0.00000000E+00  0.00000000E+00  0.00000000E+00
  0.00000000E+00  0.00000000E+00  0.00000000E+00
  0.00000000E+00  0.00000000E+00  0.00000000E+00
  0.00000000E+00  0.00000000E+00  0.00000000E+00
  0.00000000E+00  0.00000000E+00  0.00000000E+00
  0.00000000E+00  0.00000000E+00  0.00000000E+00
  0.00000000E+00  0.00000000E+00  0.00000000E+00
  0.00000000E+00  0.00000000E+00  0.00000000E+00
  0.00000000E+00  0.00000000E+00  0.00000000E+00
