ba8 si16                                
   1.00000000000000     
    24.0094680786000012    0.0000000000000000    0.0000000000000000
     0.0000000000000000    6.7778496741999996    0.0000000000000000
     0.0000000000000000    0.0000000000000000   11.6021432877000006
   Ba   Si
     8    16
Selective dynamics
Direct
  0.0056936146836932  0.2500000000663931  0.7052797054947416   F   T   T
  0.3612228067530623  0.7500000176088264  0.2947202945311151   F   T   T
  0.1819296202106742  0.7500000176088264  0.1886861090895260   F   T   T
  0.1849867999765777  0.2500000000663931  0.8113138703366874   F   T   T
  0.0597801408303269  0.7500000176088264  0.9208410381304537   F   T   T
  0.3071362793985699  0.2500000000663931  0.0791589412957599   F   T   T
  0.1278430928145298  0.2500000000663931  0.4022295208042447   F   T   T
  0.2390733273727221  0.7500000176088264  0.5977705203347019   F   T   T
  0.0728991332615152  0.0716657418071906  0.1500405521154676   F   T   T
  0.2940172869673816  0.9283342493109327  0.8499594273969421   F   T   T
  0.1147241003833415  0.9280375664443630  0.6541105713274680   F   T   T
  0.2521923198039104  0.0719624246737604  0.3458894286983890   F   T   T
  0.2940172869673816  0.5716657506448005  0.8499594273969421   F   T   T
  0.0728991332615152  0.4283342493256906  0.1500405521154676   F   T   T
  0.2521923198039104  0.4280375664591213  0.3458894286983890   F   T   T
  0.1147241003833415  0.5719624335113702  0.6541105713274680   F   T   T
  0.0311098080788312  0.7500000176088264  0.5948522374842318   F   T   T
  0.3358066046946817  0.2500000000663931  0.4051477624554359   F   T   T
  0.1565134280650469  0.2500000000663931  0.0900482408526112   F   T   T
  0.2104030020766103  0.7500000176088264  0.9099517385736027   F   T   T
  0.0741839757202953  0.2500000000663931  0.9680212109145542   F   T   T
  0.2927324395522319  0.7500000176088264  0.0319788044532915   F   T   T
  0.1134392529681918  0.7500000176088264  0.4714622029265519   F   T   T
  0.2534771672190601  0.2500000000663931  0.5285377148731181   F   T   T
 
  0.00000000E+00  0.00000000E+00  0.00000000E+00
  0.00000000E+00  0.00000000E+00  0.00000000E+00
  0.00000000E+00  0.00000000E+00  0.00000000E+00
  0.00000000E+00  0.00000000E+00  0.00000000E+00
  0.00000000E+00  0.00000000E+00  0.00000000E+00
  0.00000000E+00  0.00000000E+00  0.00000000E+00
  0.00000000E+00  0.00000000E+00  0.00000000E+00
  0.00000000E+00  0.00000000E+00  0.00000000E+00
  0.00000000E+00  0.00000000E+00  0.00000000E+00
  0.00000000E+00  0.00000000E+00  0.00000000E+00
  0.00000000E+00  0.00000000E+00  0.00000000E+00
  0.00000000E+00  0.00000000E+00  0.00000000E+00
  0.00000000E+00  0.00000000E+00  0.00000000E+00
  0.00000000E+00  0.00000000E+00  0.00000000E+00
  0.00000000E+00  0.00000000E+00  0.00000000E+00
  0.00000000E+00  0.00000000E+00  0.00000000E+00
  0.00000000E+00  0.00000000E+00  0.00000000E+00
  0.00000000E+00  0.00000000E+00  0.00000000E+00
  0.00000000E+00  0.00000000E+00  0.00000000E+00
  0.00000000E+00  0.00000000E+00  0.00000000E+00
  0.00000000E+00  0.00000000E+00  0.00000000E+00
  0.00000000E+00  0.00000000E+00  0.00000000E+00
  0.00000000E+00  0.00000000E+00  0.00000000E+00
  0.00000000E+00  0.00000000E+00  0.00000000E+00
