ba8 si16                                
   1.00000000000000     
    24.0094680786000012    0.0000000000000000    0.0000000000000000
     0.0000000000000000    6.7778496741999996    0.0000000000000000
     0.0000000000000000    0.0000000000000000   11.6021432877000006
   Ba   Si
     8    16
Selective dynamics
Direct
  0.0056936146836932  0.2500000000663931  0.6478249364251446   F   T   T
  0.3279026183431810  0.7500000176088264  0.3521750636007121   F   T   T
  0.1819296202106742  0.7500000176088264  0.1821598751974071   F   T   T
  0.1516666115666965  0.2500000000663931  0.8178401042288067   F   T   T
  0.0597801408303269  0.7500000176088264  0.9640485195638359   F   T   T
  0.2738160909886886  0.2500000000663931  0.0359514598623780   F   T   T
  0.1278430928145298  0.2500000000663931  0.4355260104815997   F   T   T
  0.2057531389628409  0.7500000176088264  0.5644740306573466   F   T   T
  0.0728991332615152  0.0720603337259272  0.1957577922063628   F   T   T
  0.2606970985575003  0.9279396573921962  0.8042421873060468   F   T   T
  0.1147241003833415  0.9280398527475678  0.6476493753642468   F   T   T
  0.2188721313940221  0.0719601383705558  0.3523506246616099   F   T   T
  0.2606970985575003  0.5720603425635370  0.8042421873060468   F   T   T
  0.0728991332615152  0.4279396574069542  0.1957577922063628   F   T   T
  0.2188721313940221  0.4280398527623255  0.3523506246616099   F   T   T
  0.1147241003833415  0.5719601472081653  0.6476493753642468   F   T   T
  0.0311098080788312  0.7500000176088264  0.5653283195765723   F   T   T
  0.3024864162848004  0.2500000000663931  0.4346716803630956   F   T   T
  0.1565134280650469  0.2500000000663931  0.1340839601640857   F   T   T
  0.1770828136667291  0.7500000176088264  0.8659160192621280   F   T   T
  0.0741839757202953  0.2500000000663931  0.0156771923602101   F   T   T
  0.2594122511423507  0.7500000176088264 -0.0156771769923646   F   T   T
  0.1134392529681918  0.7500000176088264  0.4425013307729886   F   T   T
  0.2201569788091788  0.2500000000663931  0.5574985870266808   F   T   T
 
  0.00000000E+00  0.00000000E+00  0.00000000E+00
  0.00000000E+00  0.00000000E+00  0.00000000E+00
  0.00000000E+00  0.00000000E+00  0.00000000E+00
  0.00000000E+00  0.00000000E+00  0.00000000E+00
  0.00000000E+00  0.00000000E+00  0.00000000E+00
  0.00000000E+00  0.00000000E+00  0.00000000E+00
  0.00000000E+00  0.00000000E+00  0.00000000E+00
  0.00000000E+00  0.00000000E+00  0.00000000E+00
  0.00000000E+00  0.00000000E+00  0.00000000E+00
  0.00000000E+00  0.00000000E+00  0.00000000E+00
  0.00000000E+00  0.00000000E+00  0.00000000E+00
  0.00000000E+00  0.00000000E+00  0.00000000E+00
  0.00000000E+00  0.00000000E+00  0.00000000E+00
  0.00000000E+00  0.00000000E+00  0.00000000E+00
  0.00000000E+00  0.00000000E+00  0.00000000E+00
  0.00000000E+00  0.00000000E+00  0.00000000E+00
  0.00000000E+00  0.00000000E+00  0.00000000E+00
  0.00000000E+00  0.00000000E+00  0.00000000E+00
  0.00000000E+00  0.00000000E+00  0.00000000E+00
  0.00000000E+00  0.00000000E+00  0.00000000E+00
  0.00000000E+00  0.00000000E+00  0.00000000E+00
  0.00000000E+00  0.00000000E+00  0.00000000E+00
  0.00000000E+00  0.00000000E+00  0.00000000E+00
  0.00000000E+00  0.00000000E+00  0.00000000E+00
