ba8 si16                                
   1.00000000000000     
    24.0094680786000012    0.0000000000000000    0.0000000000000000
     0.0000000000000000    6.7778496741999996    0.0000000000000000
     0.0000000000000000    0.0000000000000000   11.6021432877000006
   Ba   Si
     8    16
Selective dynamics
Direct
  0.0056936146836932  0.2500000000663931  0.6862392151899315   F   T   T
  0.3362326654456496  0.7500000176088264  0.3137607848359251   F   T   T
  0.1819296202106742  0.7500000176088264  0.1866184502178030   F   T   T
  0.1599966586691650  0.2500000000663931  0.8133815292084108   F   T   T
  0.0597801408303269  0.7500000176088264  0.9404610351252231   F   T   T
  0.2821461380911643  0.2500000000663931  0.0595389443009905   F   T   T
  0.1278430928145298  0.2500000000663931  0.4206516644588014   F   T   T
  0.2140831860653094  0.7500000176088264  0.5793483766801448   F   T   T
  0.0728991332615152  0.0718652574674167  0.1757974115021200   F   T   T
  0.2690271456599760  0.9281347336507066  0.8242025680102892   F   T   T
  0.1147241003833415  0.9277687162059416  0.6475077452237948   F   T   T
  0.2272021784964977  0.0722312749121820  0.3524922548020621   F   T   T
  0.2690271456599760  0.5718652663050265  0.8242025680102892   F   T   T
  0.0728991332615152  0.4281347336654648  0.1757974115021199   F   T   T
  0.2272021784964977  0.4277687162206996  0.3524922548020621   F   T   T
  0.1147241003833415  0.5722312837497916  0.6475077452237948   F   T   T
  0.0311098080788312  0.7500000176088264  0.5815099051410195   F   T   T
  0.3108164633872690  0.2500000000663931  0.4184900947986483   F   T   T
  0.1565134280650469  0.2500000000663931  0.1117005782497494   F   T   T
  0.1854128607691976  0.7500000176088264  0.8882994011764638   F   T   T
  0.0741839757202953  0.2500000000663931  0.9961755709505840   F   T   T
  0.2677422982448192  0.7500000176088264  0.0038244444172619   F   T   T
  0.1134392529681918  0.7500000176088264  0.4587952085837725   F   T   T
  0.2284870259116474  0.2500000000663931  0.5412047092158975   F   T   T
 
  0.00000000E+00  0.00000000E+00  0.00000000E+00
  0.00000000E+00  0.00000000E+00  0.00000000E+00
  0.00000000E+00  0.00000000E+00  0.00000000E+00
  0.00000000E+00  0.00000000E+00  0.00000000E+00
  0.00000000E+00  0.00000000E+00  0.00000000E+00
  0.00000000E+00  0.00000000E+00  0.00000000E+00
  0.00000000E+00  0.00000000E+00  0.00000000E+00
  0.00000000E+00  0.00000000E+00  0.00000000E+00
  0.00000000E+00  0.00000000E+00  0.00000000E+00
  0.00000000E+00  0.00000000E+00  0.00000000E+00
  0.00000000E+00  0.00000000E+00  0.00000000E+00
  0.00000000E+00  0.00000000E+00  0.00000000E+00
  0.00000000E+00  0.00000000E+00  0.00000000E+00
  0.00000000E+00  0.00000000E+00  0.00000000E+00
  0.00000000E+00  0.00000000E+00  0.00000000E+00
  0.00000000E+00  0.00000000E+00  0.00000000E+00
  0.00000000E+00  0.00000000E+00  0.00000000E+00
  0.00000000E+00  0.00000000E+00  0.00000000E+00
  0.00000000E+00  0.00000000E+00  0.00000000E+00
  0.00000000E+00  0.00000000E+00  0.00000000E+00
  0.00000000E+00  0.00000000E+00  0.00000000E+00
  0.00000000E+00  0.00000000E+00  0.00000000E+00
  0.00000000E+00  0.00000000E+00  0.00000000E+00
  0.00000000E+00  0.00000000E+00  0.00000000E+00
