ba8 si16                                
   1.00000000000000     
    24.0094680786000012    0.0000000000000000    0.0000000000000000
     0.0000000000000000    6.7778496741999996    0.0000000000000000
     0.0000000000000000    0.0000000000000000   11.6021432877000006
   Ba   Si
     8    16
Selective dynamics
Direct
  0.0056936146836932  0.2500000000663931  0.6991817857104519   F   T   T
  0.3445627125481252  0.7500000176088264  0.3008182143154044   F   T   T
  0.1819296202106742  0.7500000176088264  0.1887236496518265   F   T   T
  0.1683267057716336  0.2500000000663931  0.8112763297743870   F   T   T
  0.0597801408303269  0.7500000176088264  0.9286802990350018   F   T   T
  0.2904761851936328  0.2500000000663931  0.0713196803912116   F   T   T
  0.1278430928145298  0.2500000000663931  0.4113774925640591   F   T   T
  0.2224132331677779  0.7500000176088264  0.5886225485748875   F   T   T
  0.0728991332615152  0.0716368071622311  0.1631073718421491   F   T   T
  0.2773571927624445  0.9283631839558927  0.8368926076702604   F   T   T
  0.1147241003833415  0.9273222874150343  0.6487964181487812   F   T   T
  0.2355322255989662  0.0726777037030890  0.3512035818770760   F   T   T
  0.2773571927624445  0.5716368159998405  0.8368926076702604   F   T   T
  0.0728991332615152  0.4283631839706504  0.1631073718421491   F   T   T
  0.2355322255989662  0.4273222874297923  0.3512035818770760   F   T   T
  0.1147241003833415  0.5726777125406989  0.6487964181487812   F   T   T
  0.0311098080788312  0.7500000176088264  0.5872712442007901   F   T   T
  0.3191465104897375  0.2500000000663931  0.4127287557388772   F   T   T
  0.1565134280650469  0.2500000000663931  0.1007304750511689   F   T   T
  0.1937429078716733  0.7500000176088264  0.8992695043750450   F   T   T
  0.0741839757202953  0.2500000000663931  0.9829223610348167   F   T   T
  0.2760723453472878  0.7500000176088264  0.0170776543330295   F   T   T
  0.1134392529681918  0.7500000176088264  0.4643645890060708   F   T   T
  0.2368170730141230  0.2500000000663931  0.5356353287935985   F   T   T
 
  0.00000000E+00  0.00000000E+00  0.00000000E+00
  0.00000000E+00  0.00000000E+00  0.00000000E+00
  0.00000000E+00  0.00000000E+00  0.00000000E+00
  0.00000000E+00  0.00000000E+00  0.00000000E+00
  0.00000000E+00  0.00000000E+00  0.00000000E+00
  0.00000000E+00  0.00000000E+00  0.00000000E+00
  0.00000000E+00  0.00000000E+00  0.00000000E+00
  0.00000000E+00  0.00000000E+00  0.00000000E+00
  0.00000000E+00  0.00000000E+00  0.00000000E+00
  0.00000000E+00  0.00000000E+00  0.00000000E+00
  0.00000000E+00  0.00000000E+00  0.00000000E+00
  0.00000000E+00  0.00000000E+00  0.00000000E+00
  0.00000000E+00  0.00000000E+00  0.00000000E+00
  0.00000000E+00  0.00000000E+00  0.00000000E+00
  0.00000000E+00  0.00000000E+00  0.00000000E+00
  0.00000000E+00  0.00000000E+00  0.00000000E+00
  0.00000000E+00  0.00000000E+00  0.00000000E+00
  0.00000000E+00  0.00000000E+00  0.00000000E+00
  0.00000000E+00  0.00000000E+00  0.00000000E+00
  0.00000000E+00  0.00000000E+00  0.00000000E+00
  0.00000000E+00  0.00000000E+00  0.00000000E+00
  0.00000000E+00  0.00000000E+00  0.00000000E+00
  0.00000000E+00  0.00000000E+00  0.00000000E+00
  0.00000000E+00  0.00000000E+00  0.00000000E+00
