ba8 si16                                
   1.00000000000000     
    24.0094680786000012    0.0000000000000000    0.0000000000000000
     0.0000000000000000    6.7778496741999996    0.0000000000000000
     0.0000000000000000    0.0000000000000000   11.6021432877000006
   Ba   Si
     8    16
Selective dynamics
Direct
  0.0056936146836932  0.2500000000663931  0.6709423280463893   F   T   T
  0.3320676418944188  0.7500000176088264  0.3290576719794674   F   T   T
  0.1819296202106742  0.7500000176088264  0.1850789435665668   F   T   T
  0.1558316351179272  0.2500000000663931  0.8149210358596475   F   T   T
  0.0597801408303269  0.7500000176088264  0.9516838470688319   F   T   T
  0.2779811145399265  0.2500000000663931  0.0483161323573820   F   T   T
  0.1278430928145298  0.2500000000663931  0.4271235225418700   F   T   T
  0.2099181625140716  0.7500000176088264  0.5728765185970767   F   T   T
  0.0728991332615152  0.0719686467567048  0.1845274561500972   F   T   T
  0.2648621221087382  0.9280313443614187  0.8154725233623129   F   T   T
  0.1147241003833415  0.9281176951116263  0.6463624401655568   F   T   T
  0.2230371549452599  0.0718822960064970  0.3536375598602997   F   T   T
  0.2648621221087382  0.5719686555943145  0.8154725233623129   F   T   T
  0.0728991332615152  0.4280313443761763  0.1845274561500972   F   T   T
  0.2230371549452599  0.4281176951263848  0.3536375598602997   F   T   T
  0.1147241003833415  0.5718823048441068  0.6463624401655568   F   T   T
  0.0311098080788312  0.7500000176088264  0.5747467784488413   F   T   T
  0.3066514398360312  0.2500000000663931  0.4252532214908266   F   T   T
  0.1565134280650469  0.2500000000663931  0.1210663026091088   F   T   T
  0.1812478372179669  0.7500000176088264  0.8789336768171049   F   T   T
  0.0741839757202953  0.2500000000663931  0.0049693335641779   F   T   T
  0.2635772746935814  0.7500000176088264 -0.0049693181963325   F   T   T
  0.1134392529681918  0.7500000176088264  0.4523406858346503   F   T   T
  0.2243220023604167  0.2500000000663931  0.5476592319650203   F   T   T
 
  0.00000000E+00  0.00000000E+00  0.00000000E+00
  0.00000000E+00  0.00000000E+00  0.00000000E+00
  0.00000000E+00  0.00000000E+00  0.00000000E+00
  0.00000000E+00  0.00000000E+00  0.00000000E+00
  0.00000000E+00  0.00000000E+00  0.00000000E+00
  0.00000000E+00  0.00000000E+00  0.00000000E+00
  0.00000000E+00  0.00000000E+00  0.00000000E+00
  0.00000000E+00  0.00000000E+00  0.00000000E+00
  0.00000000E+00  0.00000000E+00  0.00000000E+00
  0.00000000E+00  0.00000000E+00  0.00000000E+00
  0.00000000E+00  0.00000000E+00  0.00000000E+00
  0.00000000E+00  0.00000000E+00  0.00000000E+00
  0.00000000E+00  0.00000000E+00  0.00000000E+00
  0.00000000E+00  0.00000000E+00  0.00000000E+00
  0.00000000E+00  0.00000000E+00  0.00000000E+00
  0.00000000E+00  0.00000000E+00  0.00000000E+00
  0.00000000E+00  0.00000000E+00  0.00000000E+00
  0.00000000E+00  0.00000000E+00  0.00000000E+00
  0.00000000E+00  0.00000000E+00  0.00000000E+00
  0.00000000E+00  0.00000000E+00  0.00000000E+00
  0.00000000E+00  0.00000000E+00  0.00000000E+00
  0.00000000E+00  0.00000000E+00  0.00000000E+00
  0.00000000E+00  0.00000000E+00  0.00000000E+00
  0.00000000E+00  0.00000000E+00  0.00000000E+00
