ba8 si16                                
   1.00000000000000     
    24.0094680786000012    0.0000000000000000    0.0000000000000000
     0.0000000000000000    6.7778496741999996    0.0000000000000000
     0.0000000000000000    0.0000000000000000   11.6021432877000006
   Ba   Si
     8    16
Selective dynamics
Direct
  0.0056936146836932  0.2500000000663931  0.6942059970282871   F   T   T
  0.3403976889968874  0.7500000176088264  0.3057940029975698   F   T   T
  0.1819296202106742  0.7500000176088264  0.1883827071104198   F   T   T
  0.1641616822204028  0.2500000000663931  0.8116172723157944   F   T   T
  0.0597801408303269  0.7500000176088264  0.9325775880416706   F   T   T
  0.2863111616423950  0.2500000000663931  0.0674223913845434   F   T   T
  0.1278430928145298  0.2500000000663931  0.4147309923384975   F   T   T
  0.2182482096165401  0.7500000176088264  0.5852690488004489   F   T   T
  0.0728991332615152  0.0716861109251684  0.1676405272533044   F   T   T
  0.2731921692112067  0.9283138801929548  0.8323594522591051   F   T   T
  0.1147241003833415  0.9275950589123836  0.6477872171569329   F   T   T
  0.2313672020477284  0.0724049322057399  0.3522127828689242   F   T   T
  0.2731921692112067  0.5716861197627784  0.8323594522591051   F   T   T
  0.0728991332615152  0.4283138802077130  0.1676405272533044   F   T   T
  0.2313672020477284  0.4275950589271416  0.3522127828689242   F   T   T
  0.1147241003833415  0.5724049410433496  0.6477872171569329   F   T   T
  0.0311098080788312  0.7500000176088264  0.5848539814830280   F   T   T
  0.3149814869385068  0.2500000000663931  0.4151460184566398   F   T   T
  0.1565134280650469  0.2500000000663931  0.1039999122215241   F   T   T
  0.1895778843204354  0.7500000176088264  0.8960000672046893   F   T   T
  0.0741839757202953  0.2500000000663931  0.9880306365231429   F   T   T
  0.2719073217960570  0.7500000176088264  0.0119693788447028   F   T   T
  0.1134392529681918  0.7500000176088264  0.4618742407572162   F   T   T
  0.2326520494628852  0.2500000000663931  0.5381256770424542   F   T   T
 
  0.00000000E+00  0.00000000E+00  0.00000000E+00
  0.00000000E+00  0.00000000E+00  0.00000000E+00
  0.00000000E+00  0.00000000E+00  0.00000000E+00
  0.00000000E+00  0.00000000E+00  0.00000000E+00
  0.00000000E+00  0.00000000E+00  0.00000000E+00
  0.00000000E+00  0.00000000E+00  0.00000000E+00
  0.00000000E+00  0.00000000E+00  0.00000000E+00
  0.00000000E+00  0.00000000E+00  0.00000000E+00
  0.00000000E+00  0.00000000E+00  0.00000000E+00
  0.00000000E+00  0.00000000E+00  0.00000000E+00
  0.00000000E+00  0.00000000E+00  0.00000000E+00
  0.00000000E+00  0.00000000E+00  0.00000000E+00
  0.00000000E+00  0.00000000E+00  0.00000000E+00
  0.00000000E+00  0.00000000E+00  0.00000000E+00
  0.00000000E+00  0.00000000E+00  0.00000000E+00
  0.00000000E+00  0.00000000E+00  0.00000000E+00
  0.00000000E+00  0.00000000E+00  0.00000000E+00
  0.00000000E+00  0.00000000E+00  0.00000000E+00
  0.00000000E+00  0.00000000E+00  0.00000000E+00
  0.00000000E+00  0.00000000E+00  0.00000000E+00
  0.00000000E+00  0.00000000E+00  0.00000000E+00
  0.00000000E+00  0.00000000E+00  0.00000000E+00
  0.00000000E+00  0.00000000E+00  0.00000000E+00
  0.00000000E+00  0.00000000E+00  0.00000000E+00
