ba8 si16                                
   1.00000000000000     
    24.0094680786000012    0.0000000000000000    0.0000000000000000
     0.0000000000000000    6.7778496741999996    0.0000000000000000
     0.0000000000000000    0.0000000000000000   11.6021432877000006
   Ba   Si
     8    16
Selective dynamics
Direct
  0.0056936146836932  0.2500000000663931  0.7019188106534480   F   T   T
  0.3487277360993559  0.7500000176088264  0.2980811893724086   F   T   T
  0.1819296202106742  0.7500000176088264  0.1890893608615946   F   T   T
  0.1724917293228714  0.2500000000663931  0.8109106185646191   F   T   T
  0.0597801408303269  0.7500000176088264  0.9258472943585990   F   T   T
  0.2946412087448635  0.2500000000663931  0.0741526850676144   F   T   T
  0.1278430928145298  0.2500000000663931  0.4082651753616057   F   T   T
  0.2265782567190158  0.7500000176088264  0.5917348657773409   F   T   T
  0.0728991332615152  0.0715330811804871  0.1588685886303916   F   T   T
  0.2815222163136823  0.9284669099376365  0.8411313908820183   F   T   T
  0.1147241003833415  0.9273231581349871  0.6497632408661274   F   T   T
  0.2396972491502041  0.0726768329831360  0.3502367591597291   F   T   T
  0.2815222163136823  0.5715330900180967  0.8411313908820183   F   T   T
  0.0728991332615152  0.4284669099523942  0.1588685886303916   F   T   T
  0.2396972491502041  0.4273231581497454  0.3502367591597291   F   T   T
  0.1147241003833415  0.5726768418207461  0.6497632408661274   F   T   T
  0.0311098080788312  0.7500000176088264  0.5888639974315862   F   T   T
  0.3233115340409753  0.2500000000663931  0.4111360025080817   F   T   T
  0.1565134280650469  0.2500000000663931  0.0974111760820403   F   T   T
  0.1979079314229040  0.7500000176088264  0.9025888033441738   F   T   T
  0.0741839757202953  0.2500000000663931  0.9782299412299050   F   T   T
  0.2802373688985256  0.7500000176088264  0.0217700741379406   F   T   T
  0.1134392529681918  0.7500000176088264  0.4661973811131142   F   T   T
  0.2409820965653537  0.2500000000663931  0.5338025366865555   F   T   T
 
  0.00000000E+00  0.00000000E+00  0.00000000E+00
  0.00000000E+00  0.00000000E+00  0.00000000E+00
  0.00000000E+00  0.00000000E+00  0.00000000E+00
  0.00000000E+00  0.00000000E+00  0.00000000E+00
  0.00000000E+00  0.00000000E+00  0.00000000E+00
  0.00000000E+00  0.00000000E+00  0.00000000E+00
  0.00000000E+00  0.00000000E+00  0.00000000E+00
  0.00000000E+00  0.00000000E+00  0.00000000E+00
  0.00000000E+00  0.00000000E+00  0.00000000E+00
  0.00000000E+00  0.00000000E+00  0.00000000E+00
  0.00000000E+00  0.00000000E+00  0.00000000E+00
  0.00000000E+00  0.00000000E+00  0.00000000E+00
  0.00000000E+00  0.00000000E+00  0.00000000E+00
  0.00000000E+00  0.00000000E+00  0.00000000E+00
  0.00000000E+00  0.00000000E+00  0.00000000E+00
  0.00000000E+00  0.00000000E+00  0.00000000E+00
  0.00000000E+00  0.00000000E+00  0.00000000E+00
  0.00000000E+00  0.00000000E+00  0.00000000E+00
  0.00000000E+00  0.00000000E+00  0.00000000E+00
  0.00000000E+00  0.00000000E+00  0.00000000E+00
  0.00000000E+00  0.00000000E+00  0.00000000E+00
  0.00000000E+00  0.00000000E+00  0.00000000E+00
  0.00000000E+00  0.00000000E+00  0.00000000E+00
  0.00000000E+00  0.00000000E+00  0.00000000E+00
