ba8 si16                                
   1.00000000000000     
    24.0094680786000012    0.0000000000000000    0.0000000000000000
     0.0000000000000000    6.7778496741999996    0.0000000000000000
     0.0000000000000000    0.0000000000000000   11.6021432877000006
   Ba   Si
     8    16
Selective dynamics
Direct
  0.0056936146836932  0.2500000000663931  0.5563023511594053   F   T   T
  0.3320676418944188  0.7500000176088264  0.4436976488664514   F   T   T
  0.1819296202106742  0.7500000176088264 -0.3462743366867397   F   T   T
  0.1558316351179272  0.2500000000663931  0.3462743161129535   F   T   T
  0.0597801408303269  0.7500000176088264  0.4055616105318814   F   T   T
  0.2779811145399265  0.2500000000663931  0.5944383688943322   F   T   T
  0.1278430928145298  0.2500000000663931  0.5527548091523273   F   T   T
  0.2099181625140716  0.7500000176088264  0.4472452319866191   F   T   T
  0.0728991332615152  0.1571438786302409  0.1349794732939092   F   T   T
  0.2648621221087382  0.8428561124878826  0.8650205062185006   F   T   T
  0.1147241003833415  0.9337946820812933  0.6471652493071460   F   T   T
  0.2230371549452599  0.0662053090368301  0.3528347507187106   F   T   T
  0.2648621221087382  0.6571438874678506  0.8650205062185006   F   T   T
  0.0728991332615152  0.3428561125026405  0.1349794732939092   F   T   T
  0.2230371549452599  0.4337946820960513  0.3528347507187106   F   T   T
  0.1147241003833415  0.5662053178744398  0.6471652493071460   F   T   T
  0.0311098080788312  0.7500000176088264  0.5872611637984708   F   T   T
  0.3066514398360312  0.2500000000663931  0.4127388361411971   F   T   T
  0.1565134280650469  0.2500000000663931  0.0978443271187200   F   T   T
  0.1812478372179669  0.7500000176088264  0.9021556523074938   F   T   T
  0.0741839757202953  0.2500000000663931  0.9978611140674828   F   T   T
  0.2635772746935814  0.7500000176088264  0.0021389013003628   F   T   T
  0.1134392529681918  0.7500000176088264  0.4666588752586328   F   T   T
  0.2243220023604167  0.2500000000663931  0.5333410425410371   F   T   T
 
  0.00000000E+00  0.00000000E+00  0.00000000E+00
  0.00000000E+00  0.00000000E+00  0.00000000E+00
  0.00000000E+00  0.00000000E+00  0.00000000E+00
  0.00000000E+00  0.00000000E+00  0.00000000E+00
  0.00000000E+00  0.00000000E+00  0.00000000E+00
  0.00000000E+00  0.00000000E+00  0.00000000E+00
  0.00000000E+00  0.00000000E+00  0.00000000E+00
  0.00000000E+00  0.00000000E+00  0.00000000E+00
  0.00000000E+00  0.00000000E+00  0.00000000E+00
  0.00000000E+00  0.00000000E+00  0.00000000E+00
  0.00000000E+00  0.00000000E+00  0.00000000E+00
  0.00000000E+00  0.00000000E+00  0.00000000E+00
  0.00000000E+00  0.00000000E+00  0.00000000E+00
  0.00000000E+00  0.00000000E+00  0.00000000E+00
  0.00000000E+00  0.00000000E+00  0.00000000E+00
  0.00000000E+00  0.00000000E+00  0.00000000E+00
  0.00000000E+00  0.00000000E+00  0.00000000E+00
  0.00000000E+00  0.00000000E+00  0.00000000E+00
  0.00000000E+00  0.00000000E+00  0.00000000E+00
  0.00000000E+00  0.00000000E+00  0.00000000E+00
  0.00000000E+00  0.00000000E+00  0.00000000E+00
  0.00000000E+00  0.00000000E+00  0.00000000E+00
  0.00000000E+00  0.00000000E+00  0.00000000E+00
  0.00000000E+00  0.00000000E+00  0.00000000E+00
