ba8 si16                                
   1.00000000000000     
    24.0094680786000012    0.0000000000000000    0.0000000000000000
     0.0000000000000000    6.7778496741999996    0.0000000000000000
     0.0000000000000000    0.0000000000000000   11.6021432877000006
   Ba   Si
     8    16
Selective dynamics
Direct
  0.0056936146836932  0.2500000000663931  0.7020880751487822   F   T   T
  0.3487277360993559  0.7500000176088264  0.2979119248770741   F   T   T
  0.1819296202106742  0.7500000176088264  0.1889360869777876   F   T   T
  0.1724917293228714  0.2500000000663931  0.8110638924484262   F   T   T
  0.0597801408303269  0.7500000176088264  0.9281386911322765   F   T   T
  0.2946412087448635  0.2500000000663931  0.0718612882939368   F   T   T
  0.1278430928145298  0.2500000000663931  0.4068356780679717   F   T   T
  0.2265782567190158  0.7500000176088264  0.5931643630709748   F   T   T
  0.0728991332615152  0.0728843449585701  0.1582689417905972   F   T   T
  0.2815222163136823  0.9271156461595537  0.8417310377218129   F   T   T
  0.1147241003833415  0.9263467071035117  0.6511863281196356   F   T   T
  0.2396972491502041  0.0736532840146115  0.3488136719062203   F   T   T
  0.2815222163136823  0.5728843537961795  0.8417310377218129   F   T   T
  0.0728991332615152  0.4271156461743112  0.1582689417905972   F   T   T
  0.2396972491502041  0.4263467071182696  0.3488136719062203   F   T   T
  0.1147241003833415  0.5736532928522214  0.6511863281196356   F   T   T
  0.0311098080788312  0.7500000176088264  0.5907986606148345   F   T   T
  0.3233115340409753  0.2500000000663931  0.4092013393248334   F   T   T
  0.1565134280650469  0.2500000000663931  0.0970101147374466   F   T   T
  0.1979079314229040  0.7500000176088264  0.9029898646887669   F   T   T
  0.0741839757202953  0.2500000000663931  0.9785941931199487   F   T   T
  0.2802373688985256  0.7500000176088264  0.0214058222478970   F   T   T
  0.1134392529681918  0.7500000176088264  0.4689585727749515   F   T   T
  0.2409820965653537  0.2500000000663931  0.5310413450247191   F   T   T
 
  0.00000000E+00  0.00000000E+00  0.00000000E+00
  0.00000000E+00  0.00000000E+00  0.00000000E+00
  0.00000000E+00  0.00000000E+00  0.00000000E+00
  0.00000000E+00  0.00000000E+00  0.00000000E+00
  0.00000000E+00  0.00000000E+00  0.00000000E+00
  0.00000000E+00  0.00000000E+00  0.00000000E+00
  0.00000000E+00  0.00000000E+00  0.00000000E+00
  0.00000000E+00  0.00000000E+00  0.00000000E+00
  0.00000000E+00  0.00000000E+00  0.00000000E+00
  0.00000000E+00  0.00000000E+00  0.00000000E+00
  0.00000000E+00  0.00000000E+00  0.00000000E+00
  0.00000000E+00  0.00000000E+00  0.00000000E+00
  0.00000000E+00  0.00000000E+00  0.00000000E+00
  0.00000000E+00  0.00000000E+00  0.00000000E+00
  0.00000000E+00  0.00000000E+00  0.00000000E+00
  0.00000000E+00  0.00000000E+00  0.00000000E+00
  0.00000000E+00  0.00000000E+00  0.00000000E+00
  0.00000000E+00  0.00000000E+00  0.00000000E+00
  0.00000000E+00  0.00000000E+00  0.00000000E+00
  0.00000000E+00  0.00000000E+00  0.00000000E+00
  0.00000000E+00  0.00000000E+00  0.00000000E+00
  0.00000000E+00  0.00000000E+00  0.00000000E+00
  0.00000000E+00  0.00000000E+00  0.00000000E+00
  0.00000000E+00  0.00000000E+00  0.00000000E+00
