ba8 si16                                
   1.00000000000000     
    24.0094680786000012    0.0000000000000000    0.0000000000000000
     0.0000000000000000    6.7778496741999996    0.0000000000000000
     0.0000000000000000    0.0000000000000000   11.6021432877000006
   Ba   Si
     8    16
Selective dynamics
Direct
  0.0056936146836932  0.2500000000663931  0.6806698489947555   F   T   T
  0.3362326654456496  0.7500000176088264  0.3193301510311009   F   T   T
  0.1819296202106742  0.7500000176088264  0.1867396977729736   F   T   T
  0.1599966586691650  0.2500000000663931  0.8132602816532406   F   T   T
  0.0597801408303269  0.7500000176088264  0.9448864394772996   F   T   T
  0.2821461380911643  0.2500000000663931  0.0551135399489145   F   T   T
  0.1278430928145298  0.2500000000663931  0.4201832423944037   F   T   T
  0.2140831860653094  0.7500000176088264  0.5798167987445427   F   T   T
  0.0728991332615152  0.0731954690948167  0.1764978396616751   F   T   T
  0.2690271456599760  0.9268045220233069  0.8235021398507349   F   T   T
  0.1147241003833415  0.9268230816380028  0.6471541507490368   F   T   T
  0.2272021784964977  0.0731769094801208  0.3528458492768202   F   T   T
  0.2690271456599760  0.5731954779324263  0.8235021398507349   F   T   T
  0.0728991332615152  0.4268045220380647  0.1764978396616751   F   T   T
  0.2272021784964977  0.4268230816527607  0.3528458492768202   F   T   T
  0.1147241003833415  0.5731769183177304  0.6471541507490368   F   T   T
  0.0311098080788312  0.7500000176088264  0.5818989938653427   F   T   T
  0.3108164633872690  0.2500000000663931  0.4181010060743258   F   T   T
  0.1565134280650469  0.2500000000663931  0.1134398531248875   F   T   T
  0.1854128607691976  0.7500000176088264  0.8865601263013262   F   T   T
  0.0741839757202953  0.2500000000663931  0.9975179232092758   F   T   T
  0.2677422982448192  0.7500000176088264  0.0024820921585699   F   T   T
  0.1134392529681918  0.7500000176088264  0.4601970678688245   F   T   T
  0.2284870259116474  0.2500000000663931  0.5398028499308448   F   T   T
 
  0.00000000E+00  0.00000000E+00  0.00000000E+00
  0.00000000E+00  0.00000000E+00  0.00000000E+00
  0.00000000E+00  0.00000000E+00  0.00000000E+00
  0.00000000E+00  0.00000000E+00  0.00000000E+00
  0.00000000E+00  0.00000000E+00  0.00000000E+00
  0.00000000E+00  0.00000000E+00  0.00000000E+00
  0.00000000E+00  0.00000000E+00  0.00000000E+00
  0.00000000E+00  0.00000000E+00  0.00000000E+00
  0.00000000E+00  0.00000000E+00  0.00000000E+00
  0.00000000E+00  0.00000000E+00  0.00000000E+00
  0.00000000E+00  0.00000000E+00  0.00000000E+00
  0.00000000E+00  0.00000000E+00  0.00000000E+00
  0.00000000E+00  0.00000000E+00  0.00000000E+00
  0.00000000E+00  0.00000000E+00  0.00000000E+00
  0.00000000E+00  0.00000000E+00  0.00000000E+00
  0.00000000E+00  0.00000000E+00  0.00000000E+00
  0.00000000E+00  0.00000000E+00  0.00000000E+00
  0.00000000E+00  0.00000000E+00  0.00000000E+00
  0.00000000E+00  0.00000000E+00  0.00000000E+00
  0.00000000E+00  0.00000000E+00  0.00000000E+00
  0.00000000E+00  0.00000000E+00  0.00000000E+00
  0.00000000E+00  0.00000000E+00  0.00000000E+00
  0.00000000E+00  0.00000000E+00  0.00000000E+00
  0.00000000E+00  0.00000000E+00  0.00000000E+00
