ba8 si16                                
   1.00000000000000     
    24.0094680786000012    0.0000000000000000    0.0000000000000000
     0.0000000000000000    6.7778496741999996    0.0000000000000000
     0.0000000000000000    0.0000000000000000   11.6021432877000006
   Ba   Si
     8    16
Selective dynamics
Direct
  0.0056936146836932  0.2500000000663931  0.7064163123894137   F   T   T
  0.3653878303043001  0.7500000176088264  0.2935836876364431   F   T   T
  0.1819296202106742  0.7500000176088264  0.1880181587365328   F   T   T
  0.1891518235278156  0.2500000000663931  0.8119818206896813   F   T   T
  0.0597801408303269  0.7500000176088264  0.9212391216598560   F   T   T
  0.3113013029498077  0.2500000000663931  0.0787608577663577   F   T   T
  0.1278430928145298  0.2500000000663931  0.3989467004474528   F   T   T
  0.2432383509239529  0.7500000176088264  0.6010533406914933   F   T   T
  0.0728991332615152  0.0729228499157926  0.1474074892378789   F   T   T
  0.2981823105186194  0.9270771412023311  0.8525924902745309   F   T   T
  0.1147241003833415  0.9271743093709413  0.6579370155083580   F   T   T
  0.2563573433551412  0.0728256817471820  0.3420629845174989   F   T   T
  0.2981823105186194  0.5729228587534021  0.8525924902745309   F   T   T
  0.0728991332615152  0.4270771412170890  0.1474074892378789   F   T   T
  0.2563573433551412  0.4271743093856995  0.3420629845174989   F   T   T
  0.1147241003833415  0.5728256905847919  0.6579370155083580   F   T   T
  0.0311098080788312  0.7500000176088264  0.5987393550696167   F   T   T
  0.3399716282459195  0.2500000000663931  0.4012606448700510   F   T   T
  0.1565134280650469  0.2500000000663931  0.0871522214842198   F   T   T
  0.2145680256278482  0.7500000176088264  0.9128477579419939   F   T   T
  0.0741839757202953  0.2500000000663931  0.9662574940947445   F   T   T
  0.2968974631034698  0.7500000176088264  0.0337425212731010   F   T   T
  0.1134392529681918  0.7500000176088264  0.4762938549488595   F   T   T
  0.2576421907702979  0.2500000000663931  0.5237060628508103   F   T   T
 
  0.00000000E+00  0.00000000E+00  0.00000000E+00
  0.00000000E+00  0.00000000E+00  0.00000000E+00
  0.00000000E+00  0.00000000E+00  0.00000000E+00
  0.00000000E+00  0.00000000E+00  0.00000000E+00
  0.00000000E+00  0.00000000E+00  0.00000000E+00
  0.00000000E+00  0.00000000E+00  0.00000000E+00
  0.00000000E+00  0.00000000E+00  0.00000000E+00
  0.00000000E+00  0.00000000E+00  0.00000000E+00
  0.00000000E+00  0.00000000E+00  0.00000000E+00
  0.00000000E+00  0.00000000E+00  0.00000000E+00
  0.00000000E+00  0.00000000E+00  0.00000000E+00
  0.00000000E+00  0.00000000E+00  0.00000000E+00
  0.00000000E+00  0.00000000E+00  0.00000000E+00
  0.00000000E+00  0.00000000E+00  0.00000000E+00
  0.00000000E+00  0.00000000E+00  0.00000000E+00
  0.00000000E+00  0.00000000E+00  0.00000000E+00
  0.00000000E+00  0.00000000E+00  0.00000000E+00
  0.00000000E+00  0.00000000E+00  0.00000000E+00
  0.00000000E+00  0.00000000E+00  0.00000000E+00
  0.00000000E+00  0.00000000E+00  0.00000000E+00
  0.00000000E+00  0.00000000E+00  0.00000000E+00
  0.00000000E+00  0.00000000E+00  0.00000000E+00
  0.00000000E+00  0.00000000E+00  0.00000000E+00
  0.00000000E+00  0.00000000E+00  0.00000000E+00
