ba8 si16                                
   1.00000000000000     
    24.0094680786000012    0.0000000000000000    0.0000000000000000
     0.0000000000000000    6.7778496741999996    0.0000000000000000
     0.0000000000000000    0.0000000000000000   11.6021432877000006
   Ba   Si
     8    16
Selective dynamics
Direct
  0.0056936146836932  0.2500000000663931  0.6254966500949948   F   T   T
  0.3279026183431810  0.7500000176088264  0.3745033499308616   F   T   T
  0.1819296202106742  0.7500000176088264  0.1844781681388055   F   T   T
  0.1516666115666965  0.2500000000663931  0.8155218112874085   F   T   T
  0.0597801408303269  0.7500000176088264  0.9684718821886724   F   T   T
  0.2738160909886886  0.2500000000663931  0.0315280972375413   F   T   T
  0.1278430928145298  0.2500000000663931  0.4332065762502694   F   T   T
  0.2057531389628409  0.7500000176088264  0.5667934648886773   F   T   T
  0.0728991332615152  0.0730602179541900  0.1962180714105232   F   T   T
  0.2606970985575003  0.9269397731639335  0.8037819081018865   F   T   T
  0.1147241003833415  0.9282342951919972  0.6432660985825649   F   T   T
  0.2188721313940221  0.0717656959261264  0.3567339014432920   F   T   T
  0.2606970985575003  0.5730602267917997  0.8037819081018865   F   T   T
  0.0728991332615152  0.4269397731786914  0.1962180714105232   F   T   T
  0.2188721313940221  0.4282342952067549  0.3567339014432920   F   T   T
  0.1147241003833415  0.5717657047637360  0.6432660985825649   F   T   T
  0.0311098080788312  0.7500000176088264  0.5670249991993934   F   T   T
  0.3024864162848004  0.2500000000663931  0.4329750007402748   F   T   T
  0.1565134280650469  0.2500000000663931  0.1364945068435937   F   T   T
  0.1770828136667291  0.7500000176088264  0.8635054725826196   F   T   T
  0.0741839757202953  0.2500000000663931  0.0168488227257299   F   T   T
  0.2594122511423507  0.7500000176088264 -0.0168488073578843   F   T   T
  0.1134392529681918  0.7500000176088264  0.4444734938768121   F   T   T
  0.2201569788091788  0.2500000000663931  0.5555264239228580   F   T   T
 
  0.00000000E+00  0.00000000E+00  0.00000000E+00
  0.00000000E+00  0.00000000E+00  0.00000000E+00
  0.00000000E+00  0.00000000E+00  0.00000000E+00
  0.00000000E+00  0.00000000E+00  0.00000000E+00
  0.00000000E+00  0.00000000E+00  0.00000000E+00
  0.00000000E+00  0.00000000E+00  0.00000000E+00
  0.00000000E+00  0.00000000E+00  0.00000000E+00
  0.00000000E+00  0.00000000E+00  0.00000000E+00
  0.00000000E+00  0.00000000E+00  0.00000000E+00
  0.00000000E+00  0.00000000E+00  0.00000000E+00
  0.00000000E+00  0.00000000E+00  0.00000000E+00
  0.00000000E+00  0.00000000E+00  0.00000000E+00
  0.00000000E+00  0.00000000E+00  0.00000000E+00
  0.00000000E+00  0.00000000E+00  0.00000000E+00
  0.00000000E+00  0.00000000E+00  0.00000000E+00
  0.00000000E+00  0.00000000E+00  0.00000000E+00
  0.00000000E+00  0.00000000E+00  0.00000000E+00
  0.00000000E+00  0.00000000E+00  0.00000000E+00
  0.00000000E+00  0.00000000E+00  0.00000000E+00
  0.00000000E+00  0.00000000E+00  0.00000000E+00
  0.00000000E+00  0.00000000E+00  0.00000000E+00
  0.00000000E+00  0.00000000E+00  0.00000000E+00
  0.00000000E+00  0.00000000E+00  0.00000000E+00
  0.00000000E+00  0.00000000E+00  0.00000000E+00
