ba8 si16                                
   1.00000000000000     
    24.0094680786000012    0.0000000000000000    0.0000000000000000
     0.0000000000000000    6.7778496741999996    0.0000000000000000
     0.0000000000000000    0.0000000000000000   11.6021432877000006
   Ba   Si
     8    16
Selective dynamics
Direct
  0.0056936146836932  0.2500000000663931  0.6922984896298526   F   T   T
  0.3403976889968874  0.7500000176088264  0.3077015103960036   F   T   T
  0.1819296202106742  0.7500000176088264  0.1881786843597311   F   T   T
  0.1641616822204028  0.2500000000663931  0.8118212950664828   F   T   T
  0.0597801408303269  0.7500000176088264  0.9364219723099259   F   T   T
  0.2863111616423950  0.2500000000663931  0.0635780071162874   F   T   T
  0.1278430928145298  0.2500000000663931  0.4143749964369305   F   T   T
  0.2182482096165401  0.7500000176088264  0.5856250447020162   F   T   T
  0.0728991332615152  0.0730549699779878  0.1682818769872214   F   T   T
  0.2731921692112067  0.9269450211401358  0.8317181025251883   F   T   T
  0.1147241003833415  0.9265305782784156  0.6482589140118139   F   T   T
  0.2313672020477284  0.0734694128397077  0.3517410860140425   F   T   T
  0.2731921692112067  0.5730549788155974  0.8317181025251883   F   T   T
  0.0728991332615152  0.4269450211548935  0.1682818769872214   F   T   T
  0.2313672020477284  0.4265305782931736  0.3517410860140425   F   T   T
  0.1147241003833415  0.5734694216773176  0.6482589140118139   F   T   T
  0.0311098080788312  0.7500000176088264  0.5856640679767361   F   T   T
  0.3149814869385068  0.2500000000663931  0.4143359319629321   F   T   T
  0.1565134280650469  0.2500000000663931  0.1051623017891950   F   T   T
  0.1895778843204354  0.7500000176088264  0.8948376776370185   F   T   T
  0.0741839757202953  0.2500000000663931  0.9893646036450707   F   T   T
  0.2719073217960570  0.7500000176088264  0.0106354117227750   F   T   T
  0.1134392529681918  0.7500000176088264  0.4637914700565772   F   T   T
  0.2326520494628852  0.2500000000663931  0.5362084477430927   F   T   T
 
  0.00000000E+00  0.00000000E+00  0.00000000E+00
  0.00000000E+00  0.00000000E+00  0.00000000E+00
  0.00000000E+00  0.00000000E+00  0.00000000E+00
  0.00000000E+00  0.00000000E+00  0.00000000E+00
  0.00000000E+00  0.00000000E+00  0.00000000E+00
  0.00000000E+00  0.00000000E+00  0.00000000E+00
  0.00000000E+00  0.00000000E+00  0.00000000E+00
  0.00000000E+00  0.00000000E+00  0.00000000E+00
  0.00000000E+00  0.00000000E+00  0.00000000E+00
  0.00000000E+00  0.00000000E+00  0.00000000E+00
  0.00000000E+00  0.00000000E+00  0.00000000E+00
  0.00000000E+00  0.00000000E+00  0.00000000E+00
  0.00000000E+00  0.00000000E+00  0.00000000E+00
  0.00000000E+00  0.00000000E+00  0.00000000E+00
  0.00000000E+00  0.00000000E+00  0.00000000E+00
  0.00000000E+00  0.00000000E+00  0.00000000E+00
  0.00000000E+00  0.00000000E+00  0.00000000E+00
  0.00000000E+00  0.00000000E+00  0.00000000E+00
  0.00000000E+00  0.00000000E+00  0.00000000E+00
  0.00000000E+00  0.00000000E+00  0.00000000E+00
  0.00000000E+00  0.00000000E+00  0.00000000E+00
  0.00000000E+00  0.00000000E+00  0.00000000E+00
  0.00000000E+00  0.00000000E+00  0.00000000E+00
  0.00000000E+00  0.00000000E+00  0.00000000E+00
