ba8 si16                                
   1.00000000000000     
     10.1590119257264231   -0.0000000000000000    0.0000000000000000
    -0.0000000000000000    6.6041881390725088    0.0000000000000000
     0.0000000000000000    0.0000000000000000   11.2840189490987051
   Ba   Si
     8    16
Direct
  0.0167788229803965  0.2500000000663931  0.6904474945202000
  0.9832211802828351  0.7500000176088264  0.3095525055056570
  0.4832211803161311  0.7500000176088264  0.1904474327945350
  0.5167788196172697  0.2500000000663931  0.8095525466316783
  0.1617405917849412  0.7500000176088264  0.9062606588725898
  0.8382594082594605  0.2500000000663931  0.0937393205536241
  0.3382594081817627  0.2500000000663931  0.4062607410858445
  0.6617405917516381  0.7500000176088264  0.5937393000531018
  0.1907085247528970  0.0698262822898763  0.1470166138539120
  0.8092914752914980  0.9301737088282471  0.8529833656584977
  0.3092914752137998  0.9301737088282471  0.6470166343802908
  0.6907085247196006  0.0698262822898763  0.3529833656455659
  0.8092914752914980  0.5698262911274861  0.8529833656584977
  0.1907085247528970  0.4301737088430050  0.1470166138539120
  0.6907085247196006  0.4301737088430050  0.3529833656455659
  0.3092914752137998  0.5698262911274861  0.6470166343802908
  0.0823696868714841  0.7500000176088264  0.5931822121598016
  0.9176302933049278  0.2500000000663931  0.4068177877798666
  0.4176303197548811  0.2500000000663931  0.0931821505203256
  0.5823697067061708  0.7500000176088264  0.9068178289058879
  0.1953407919156224  0.2500000000663931  0.9643713300077493
  0.8046591949204507  0.7500000176088264  0.0356286853600962
  0.3046591948427529  0.7500000176088264  0.4643712478548268
  0.6953408050906480  0.2500000000663931  0.5356286699448433
 
  0.00000000E+00  0.00000000E+00  0.00000000E+00
  0.00000000E+00  0.00000000E+00  0.00000000E+00
  0.00000000E+00  0.00000000E+00  0.00000000E+00
  0.00000000E+00  0.00000000E+00  0.00000000E+00
  0.00000000E+00  0.00000000E+00  0.00000000E+00
  0.00000000E+00  0.00000000E+00  0.00000000E+00
  0.00000000E+00  0.00000000E+00  0.00000000E+00
  0.00000000E+00  0.00000000E+00  0.00000000E+00
  0.00000000E+00  0.00000000E+00  0.00000000E+00
  0.00000000E+00  0.00000000E+00  0.00000000E+00
  0.00000000E+00  0.00000000E+00  0.00000000E+00
  0.00000000E+00  0.00000000E+00  0.00000000E+00
  0.00000000E+00  0.00000000E+00  0.00000000E+00
  0.00000000E+00  0.00000000E+00  0.00000000E+00
  0.00000000E+00  0.00000000E+00  0.00000000E+00
  0.00000000E+00  0.00000000E+00  0.00000000E+00
  0.00000000E+00  0.00000000E+00  0.00000000E+00
  0.00000000E+00  0.00000000E+00  0.00000000E+00
  0.00000000E+00  0.00000000E+00  0.00000000E+00
  0.00000000E+00  0.00000000E+00  0.00000000E+00
  0.00000000E+00  0.00000000E+00  0.00000000E+00
  0.00000000E+00  0.00000000E+00  0.00000000E+00
  0.00000000E+00  0.00000000E+00  0.00000000E+00
  0.00000000E+00  0.00000000E+00  0.00000000E+00
