ba8 si16                                
1.0
       24.0094680786         0.0000000000         0.0000000000
        0.0000000000         6.7778496742         0.0000000000
        0.0000000000         0.0000000000        11.6021432877
   Ba   Si
    8   16
Selective Dynamics
Cartesian
     0.136700655         1.694462419         8.241478486 F T T
     9.172767373         5.083387256         3.360664801 F T T
     4.368033359         5.083387256         2.153902010 F T T
     4.941434669         1.694462419         9.448240759 F T T
     1.435289350         5.083387256        10.670219713 F T T
     7.874178409         1.694462419         0.931923142 F T T
     3.069444753         1.694462419         4.596173076 F T T
     6.240023275         5.083387256         7.005970903 F T T
     1.750269406         0.501069932         1.675478989 F T T
     7.559198622         6.276779641         9.926663780 F T T
     2.754464608         6.282025873         7.691223653 F T T
     6.55500342         0.495823852         3.910919635 F T T
     7.559198622         3.889994870         9.926663780 F T T
     1.750269406         2.887854804         1.675478989 F T T
     6.55500342         2.893100834         3.910919635 F T T
     2.754464608         3.884748639         7.691223653 F T T 
     0.746929942         5.083387256         7.035286044 F T T
     8.562538041         1.694462419         4.566856898 F T T
     3.757804027         1.694462419         0.992010503 F T T
     5.551664001         5.083387256         10.610132353 F T T
     1.781117855         1.694462419        11.185317262 F T T
     7.528350352         5.083387256         0.416826026 F T T
     2.723616159         5.083387256         5.594072834 F T T
     6.58585169         1.694462419         6.008069417 F T T
