ba8 si16                                
   1.00000000000000     
     9.4094680785999998    0.0000000000000000    0.0000000000000000
     0.0000000000000000    6.7778496741999996    0.0000000000000000
     0.0000000000000000    0.0000000000000000   11.6021432877000006
   Ba   Si
     8    16
Selective Dynamics
Direct
  0.0144254158715339  0.2500000000663931  0.6922582842044172 F T T
  0.9855745873916977  0.7500000176088264  0.3077417158214393 F T T
  0.4855745874249935  0.7500000176088264  0.1922582224787527 F T T
  0.5144254125084071  0.2500000000663931  0.8077417569474612 F T T
  0.1577584416212001  0.7500000176088264  0.9059886745167548 F T T
  0.8422415584232015  0.2500000000663931  0.0940113049094591 F T T
  0.3422415583455039  0.2500000000663931  0.4059887567300094 F T T
  0.6577584415878972  0.7500000176088264  0.5940112844089368 F T T
  0.1941492355561273  0.0724784631078928  0.1457201380529432 F T T
  0.8058507644882673  0.9275215280102307  0.8542798414594662 F T T
  0.3058507644105696  0.9275215280102307  0.6457201585793223 F T T
  0.6941492355228314  0.0724784631078928  0.3542798414465346 F T T
  0.8058507644882673  0.5724784719455025  0.8542798414594662 F T T
  0.1941492355561273  0.4275215280249888  0.1457201380529432 F T T
  0.6941492355228314  0.4275215280249888  0.3542798414465346 F T T
  0.3058507644105696  0.5724784719455025  0.6457201585793223 F T T
  0.0843719600261162  0.7500000176088264  0.5902018976734896 F T T
  0.9156280201502957  0.2500000000663931  0.4097981022661782 F T T
  0.4156280466002490  0.2500000000663931  0.0902018360340139 F T T
  0.5843719798608030  0.7500000176088264  0.9097981433921999 F T T
  0.1972838366677725  0.2500000000663931  0.9661894485048620 F T T
  0.8027161501683007  0.7500000176088264  0.0338105668629838 F T T
  0.3027161500906026  0.7500000176088264  0.4661893663519392 F T T
  0.6972838498427980  0.2500000000663931  0.5338105514477306 F T T
