ba8 si16                                
   1.00000000000000     
    90.7576090236543536    0.0000000000000000    0.0000000000000000
     0.0000000000000000    6.7032242033702012    0.0000000000000000
     0.0000000000000000    0.0000000000000000   11.4757115049900431
   Ba   Si
    68   136
Direct
  0.0036735691217993  0.2500000000663931  0.7010819920383241
  0.1000892784883737  0.2500000000663931  0.6905187614117486
  0.1983064208980220  0.2500000000663931  0.6913756946589052
  0.2966766305416019  0.2500000000663931  0.6914539209821285
  0.3950541067322034  0.2500000000663931  0.6915671829673443
  0.4934678814492320  0.2500000000663931  0.6916231937910760
  0.5918535767494731  0.2500000000663931  0.6913747142067234
  0.6902480256115167  0.2500000000663931  0.6912265471613673
  0.7896944807851917  0.2500000000663931  0.6928858084000302
  0.0968279105218511  0.7500000176088264  0.3080399475295211
  0.1951878988202671  0.7500000176088264  0.3083797101131927
  0.2935460037806025  0.7500000176088264  0.3085727921195267
  0.3919401634589069  0.7500000176088264  0.3085913342157053
  0.4903432746710998  0.7500000176088264  0.3086031267634923
  0.5887027993433719  0.7500000176088264  0.3084790644253607
  0.6871001467826969  0.7500000176088264  0.3085203854500638
  0.7851810052220782  0.7500000176088264  0.3084850824588937
  0.0465151857579851  0.7500000176088264  0.1928857466743657
  0.1459616513487280  0.7500000176088264  0.1912264854357027
  0.2443561002107716  0.7500000176088264  0.1913746524810588
  0.3427417955110125  0.7500000176088264  0.1916231320654109
  0.4411555285706898  0.7500000176088264  0.1915671212416795
  0.5395330255954275  0.7500000176088264  0.1914538592564637
  0.6379032352280863  0.7500000176088264  0.1913756329332408
  0.7361203672315875  0.7500000176088264  0.1905186996860836
  0.8325360769257433  0.7500000176088264  0.2010819303126593
  0.0510286040490657  0.2500000000663931  0.8084851235849155
  0.1491095405836947  0.2500000000663931  0.8085204265760856
  0.2475068567827362  0.2500000000663931  0.8084791055513828
  0.3458663814659295  0.2500000000663931  0.8086031678895135
  0.4442695135013376  0.2500000000663931  0.8085913753417270
  0.5426636731796420  0.2500000000663931  0.8085728332455484
  0.6410217573058411  0.2500000000663931  0.8083797512392142
  0.7393817143639739  0.2500000000663931  0.8080399886555427
  0.0210336004093258  0.7500000176088264  0.9122745723540825
  0.1144461521941664  0.7500000176088264  0.9059416444128217
  0.2125693524482764  0.7500000176088264  0.9057563753582524
  0.3109369313594214  0.7500000176088264  0.9059850747530590
  0.4093207082280007  0.7500000176088264  0.9060510669172541
  0.5077552914339798  0.7500000176088264  0.9060134841365386
  0.6061115653131202  0.7500000176088264  0.9058478203618406
  0.7044189382702029  0.7500000176088264  0.9049152853946424
  0.8021932204197123  0.7500000176088264  0.8955671882240516
  0.0821570765596663  0.2500000000663931  0.0930865618557875
  0.1809103472901022  0.2500000000663931  0.0940282274994376
  0.2793066638802312  0.2500000000663931  0.0940329054456711
  0.3776992350864714  0.2500000000663931  0.0941627632286774
  0.4760852938922880  0.2500000000663931  0.0940990128389758
  0.5744384911895182  0.2500000000663931  0.0939668965753839
  0.6727748068544485  0.2500000000663931  0.0936770230974067
  0.7709085591811090  0.2500000000663931  0.0953436872708754
  0.0340163940490516  0.2500000000663931  0.3955672704373063
  0.1317907595132571  0.2500000000663931  0.4049153676078971
  0.2300980699897729  0.2500000000663931  0.4058479025750953
  0.3284544063494796  0.2500000000663931  0.4060135663497932
  0.4268889687322439  0.2500000000663931  0.4060511491305087
  0.5252727247776008  0.2500000000663931  0.4059851569663137
  0.6236403036778317  0.2500000000663931  0.4057564575715073
  0.7217634518684508  0.2500000000663931  0.4059417266260765
  0.8151760140703522  0.2500000000663931  0.4122746545673373
  0.0653011021535333  0.7500000176088264  0.5953436667703532
  0.1634348076252296  0.7500000176088264  0.5936770025968845
  0.2617712274280778  0.7500000176088264  0.5939668760748615
  0.3601243414106052  0.7500000176088264  0.5940989923384536
  0.4585104418737731  0.7500000176088264  0.5941627427281548
  0.5569029922567981  0.7500000176088264  0.5940328849451489
  0.6552992880127909  0.7500000176088264  0.5940282069989153
  0.7540525743688289  0.7500000176088264  0.5930865413552654
  0.0178616158932912  0.0715933791906864  0.1453102804977968
  0.1171581848236201  0.0703904831970657  0.1456928983123589
  0.2156516018015491  0.0702963709813441  0.1460563100598608
  0.3140328279083695  0.0703123539582839  0.1462437387632628
  0.4124378530040311  0.0702842560896534  0.1462606189861901
  0.5108169681243582  0.0702843736584043  0.1463008671280823
  0.6091635960966381  0.0702966094738385  0.1460112487142748
  0.7074726160524260  0.0702937101527242  0.1451692687335451
  0.8055878894848769  0.0715808130656816  0.1424753799565023
  0.0800198379336244  0.9300771217999315  0.8542939022508167
  0.1778409304675659  0.9296926602680196  0.8537711831683383
  0.2762171464867602  0.9296549473154255  0.8538193060690596
  0.3745674192959585  0.9296887924886831  0.8539328315358155
  0.4730184086005073  0.9296841850673162  0.8539938334715516
  0.5713848985290714  0.9296993116559958  0.8537052043908893
  0.6697257192206292  0.9297343454638302  0.8535585210249655
  0.7681692916985097  0.9304058128214824  0.8531380931324754
  0.0306218030900486  0.9284191780524416  0.6424754004828812
  0.1287370713139659  0.9297062809653992  0.6451692892599239
  0.2270460808636065  0.9297033816442849  0.6460112692406538
  0.3253927296591015  0.9297156174597189  0.6463008876544611
  0.4237717822988692  0.9297157350284702  0.6462606395125684
  0.5221768490518747  0.9296876371598398  0.6462437592896417
  0.6205580543245592  0.9297036201367792  0.6460563305862400
  0.7190514400622120  0.9296095079210579  0.6456929188387380
  0.8183480037949207  0.9284066119274372  0.6453103010241756
  0.0680403696361325  0.0695941782966410  0.3531380931195435
  0.1664839056761168  0.0702656456542929  0.3535585210120336
  0.2648247784311732  0.0703006794621277  0.3537052043779574
  0.3631912267133069  0.0703158060508073  0.3539938334586197
  0.4616422160069346  0.0703111986294407  0.3539328315228835
  0.5599925096502690  0.0703450438026977  0.3538193060561278
  0.6583687048353269  0.0703073308501043  0.3537711831554066
  0.7561898077863369  0.0699228693181921  0.3542939022378854
  0.0800198379336244  0.5699228781558017  0.8542939022508167
  0.1778409304675659  0.5703073396877136  0.8537711831683383
  0.2762171464867602  0.5703450526403077  0.8538193060690596
  0.3745674192959585  0.5703112074670501  0.8539328315358155
  0.4730184086005073  0.5703158148884170  0.8539938334715516
  0.5713848985290714  0.5703006882997373  0.8537052043908893
  0.6697257192206292  0.5702656544919030  0.8535585210249655
  0.7681692916985097  0.5695941871342508  0.8531380931324754
  0.0178616158932912  0.4284066119421950  0.1453102804977968
  0.1171581848236201  0.4296095079358155  0.1456928983123589
  0.2156516018015491  0.4297036201515375  0.1460563100598608
  0.3140328279083695  0.4296876371745976  0.1462437387632628
  0.4124378530040311  0.4297157350432281  0.1462606189861901
  0.5108169681243582  0.4297156174744770  0.1463008671280823
  0.6091635960966381  0.4297033816590429  0.1460112487142748
  0.7074726160524260  0.4297062809801570  0.1451692687335451
  0.8055878894848769  0.4284191780671998  0.1424753799565023
  0.0680403696361325  0.4304058128362403  0.3531380931195435
  0.1664839056761168  0.4297343454785886  0.3535585210120336
  0.2648247784311732  0.4296993116707536  0.3537052043779574
  0.3631912267133069  0.4296841850820741  0.3539938334586197
  0.4616422160069346  0.4296887925034408  0.3539328315228835
  0.5599925096502690  0.4296549473301836  0.3538193060561278
  0.6583687048353269  0.4296926602827772  0.3537711831554066
  0.7561898077863369  0.4300771218146894  0.3542939022378854
  0.0306218030900486  0.5715808219032916  0.6424754004828812
  0.1287370713139659  0.5702937189903340  0.6451692892599239
  0.2270460808636065  0.5702966183114483  0.6460112692406538
  0.3253927296591015  0.5702843824960143  0.6463008876544611
  0.4237717822988692  0.5702842649272630  0.6462606395125684
  0.5221768490518747  0.5703123627958934  0.6462437592896417
  0.6205580543245592  0.5702963798189540  0.6460563305862400
  0.7190514400622120  0.5703904920346753  0.6456929188387380
  0.8183480037949207  0.5715933880282960  0.6453103010241756
  0.0073120803931741  0.7500000176088264  0.6186816347972972
  0.1066023350919275  0.7500000176088264  0.5911836164735226
  0.2049224904583341  0.7500000176088264  0.5913644175564564
  0.3032792168471033  0.7500000176088264  0.5915650885104743
  0.4016624060107638  0.7500000176088264  0.5914154197516939
  0.5000503633831311  0.7500000176088264  0.5915445856523223
  0.5984240930137303  0.7500000176088264  0.5915616443091057
  0.6968961479099735  0.7500000176088264  0.5914008451356293
  0.7957956082113727  0.7500000176088264  0.5825717098541016
  0.0900933748864503  0.2500000000663931  0.4079907145314799
  0.1885844422870190  0.2500000000663931  0.4085444544517595
  0.2869439571058284  0.2500000000663931  0.4084160367272390
  0.3853151857641915  0.2500000000663931  0.4086494294214407
  0.4837650166893413  0.2500000000663931  0.4086312956655617
  0.5821250740928182  0.2500000000663931  0.4084051052528443
  0.6804776152126817  0.2500000000663931  0.4083484096909683
  0.7781492577824027  0.2500000000663931  0.4090713087686447
  0.0404140609306137  0.2500000000663931  0.0825716482146259
  0.1393134769867725  0.2500000000663931  0.0914007834961537
  0.2377855214550267  0.2500000000663931  0.0915615826696300
  0.3361593135661925  0.2500000000663931  0.0915445240128469
  0.4345472292921294  0.2500000000663931  0.0914153581122182
  0.5329304392899261  0.2500000000663931  0.0915650268709984
  0.6312871656677813  0.2500000000663931  0.0913643559169805
  0.7296073106280337  0.2500000000663931  0.0911835548340472
  0.8288975633831404  0.2500000000663931  0.1186815731578216
  0.0580604243863686  0.7500000176088264  0.9090713498946665
  0.1557320305072799  0.7500000176088264  0.9083484508169901
  0.2540845820442116  0.7500000176088264  0.9084051463788662
  0.3524446602709032  0.7500000176088264  0.9086313367915833
  0.4508944495387017  0.7500000176088264  0.9086494705474627
  0.5492656990312009  0.7500000176088264  0.9084160778532608
  0.6476252138390892  0.7500000176088264  0.9085444955777806
  0.7461162499993746  0.7500000176088264  0.9079907556575018
  0.0180240375383841  0.2500000000663931  0.9627540987221050
  0.1175568249088376  0.2500000000663931  0.9640279913285965
  0.2160370290218393  0.2500000000663931  0.9643371290339517
  0.3143986484497877  0.2500000000663931  0.9644946838044991
  0.4127679135464566  0.2500000000663931  0.9645086690280730
  0.5111701904971311  0.2500000000663931  0.9645276129711273
  0.6095449332877549  0.2500000000663931  0.9642141825912089
  0.7078855279286522  0.2500000000663931  0.9634885393418111
  0.8107049965508258  0.2500000000663931  0.9623976516259740
  0.0792940016529333  0.7500000176088264  0.0367450528879222
  0.1774766407951173  0.7500000176088264  0.0355446000288408
  0.2758276965392094  0.7500000176088264  0.0355860188649697
  0.3742068643775324  0.7500000176088264  0.0356929173323089
  0.4726475827788218  0.7500000176088264  0.0357899802533422
  0.5710284481588449  0.7500000176088264  0.0354711108209863
  0.6694156572164157  0.7500000176088264  0.0353342843189353
  0.7678166451241626  0.7500000176088264  0.0351325684688655
  0.0255046673935401  0.7500000176088264  0.4623975694730516
  0.1283241386254451  0.7500000176088264  0.4634884571888883
  0.2266646811919303  0.7500000176088264  0.4642141004382865
  0.3250394448166828  0.7500000176088264  0.4645275308182045
  0.4234417634137808  0.7500000176088264  0.4645085868751505
  0.5218110285104566  0.7500000176088264  0.4644946016515761
  0.6201726271042690  0.7500000176088264  0.4643370468810290
  0.7186528312281916  0.7500000176088264  0.4640279091756737
  0.8181856133901110  0.7500000176088264  0.4627540165691821
  0.0683930474507630  0.2500000000663931  0.5351325530536123
  0.1667939885035457  0.2500000000663931  0.5353342689036822
  0.2651811871440555  0.2500000000663931  0.5354710954057333
  0.3635620525240714  0.2500000000663931  0.5357899648380891
  0.4620027709253607  0.2500000000663931  0.5356929019170559
  0.5603819595978204  0.2500000000663931  0.5355860034497170
  0.6587330361651274  0.2500000000663931  0.5355445846135878
  0.7569156180352787  0.2500000000663931  0.5367450374726692
 
  0.00000000E+00  0.00000000E+00  0.00000000E+00
  0.00000000E+00  0.00000000E+00  0.00000000E+00
  0.00000000E+00  0.00000000E+00  0.00000000E+00
  0.00000000E+00  0.00000000E+00  0.00000000E+00
  0.00000000E+00  0.00000000E+00  0.00000000E+00
  0.00000000E+00  0.00000000E+00  0.00000000E+00
  0.00000000E+00  0.00000000E+00  0.00000000E+00
  0.00000000E+00  0.00000000E+00  0.00000000E+00
  0.00000000E+00  0.00000000E+00  0.00000000E+00
  0.00000000E+00  0.00000000E+00  0.00000000E+00
  0.00000000E+00  0.00000000E+00  0.00000000E+00
  0.00000000E+00  0.00000000E+00  0.00000000E+00
  0.00000000E+00  0.00000000E+00  0.00000000E+00
  0.00000000E+00  0.00000000E+00  0.00000000E+00
  0.00000000E+00  0.00000000E+00  0.00000000E+00
  0.00000000E+00  0.00000000E+00  0.00000000E+00
  0.00000000E+00  0.00000000E+00  0.00000000E+00
  0.00000000E+00  0.00000000E+00  0.00000000E+00
  0.00000000E+00  0.00000000E+00  0.00000000E+00
  0.00000000E+00  0.00000000E+00  0.00000000E+00
  0.00000000E+00  0.00000000E+00  0.00000000E+00
  0.00000000E+00  0.00000000E+00  0.00000000E+00
  0.00000000E+00  0.00000000E+00  0.00000000E+00
  0.00000000E+00  0.00000000E+00  0.00000000E+00
  0.00000000E+00  0.00000000E+00  0.00000000E+00
  0.00000000E+00  0.00000000E+00  0.00000000E+00
  0.00000000E+00  0.00000000E+00  0.00000000E+00
  0.00000000E+00  0.00000000E+00  0.00000000E+00
  0.00000000E+00  0.00000000E+00  0.00000000E+00
  0.00000000E+00  0.00000000E+00  0.00000000E+00
  0.00000000E+00  0.00000000E+00  0.00000000E+00
  0.00000000E+00  0.00000000E+00  0.00000000E+00
  0.00000000E+00  0.00000000E+00  0.00000000E+00
  0.00000000E+00  0.00000000E+00  0.00000000E+00
  0.00000000E+00  0.00000000E+00  0.00000000E+00
  0.00000000E+00  0.00000000E+00  0.00000000E+00
  0.00000000E+00  0.00000000E+00  0.00000000E+00
  0.00000000E+00  0.00000000E+00  0.00000000E+00
  0.00000000E+00  0.00000000E+00  0.00000000E+00
  0.00000000E+00  0.00000000E+00  0.00000000E+00
  0.00000000E+00  0.00000000E+00  0.00000000E+00
  0.00000000E+00  0.00000000E+00  0.00000000E+00
  0.00000000E+00  0.00000000E+00  0.00000000E+00
  0.00000000E+00  0.00000000E+00  0.00000000E+00
  0.00000000E+00  0.00000000E+00  0.00000000E+00
  0.00000000E+00  0.00000000E+00  0.00000000E+00
  0.00000000E+00  0.00000000E+00  0.00000000E+00
  0.00000000E+00  0.00000000E+00  0.00000000E+00
  0.00000000E+00  0.00000000E+00  0.00000000E+00
  0.00000000E+00  0.00000000E+00  0.00000000E+00
  0.00000000E+00  0.00000000E+00  0.00000000E+00
  0.00000000E+00  0.00000000E+00  0.00000000E+00
  0.00000000E+00  0.00000000E+00  0.00000000E+00
  0.00000000E+00  0.00000000E+00  0.00000000E+00
  0.00000000E+00  0.00000000E+00  0.00000000E+00
  0.00000000E+00  0.00000000E+00  0.00000000E+00
  0.00000000E+00  0.00000000E+00  0.00000000E+00
  0.00000000E+00  0.00000000E+00  0.00000000E+00
  0.00000000E+00  0.00000000E+00  0.00000000E+00
  0.00000000E+00  0.00000000E+00  0.00000000E+00
  0.00000000E+00  0.00000000E+00  0.00000000E+00
  0.00000000E+00  0.00000000E+00  0.00000000E+00
  0.00000000E+00  0.00000000E+00  0.00000000E+00
  0.00000000E+00  0.00000000E+00  0.00000000E+00
  0.00000000E+00  0.00000000E+00  0.00000000E+00
  0.00000000E+00  0.00000000E+00  0.00000000E+00
  0.00000000E+00  0.00000000E+00  0.00000000E+00
  0.00000000E+00  0.00000000E+00  0.00000000E+00
  0.00000000E+00  0.00000000E+00  0.00000000E+00
  0.00000000E+00  0.00000000E+00  0.00000000E+00
  0.00000000E+00  0.00000000E+00  0.00000000E+00
  0.00000000E+00  0.00000000E+00  0.00000000E+00
  0.00000000E+00  0.00000000E+00  0.00000000E+00
  0.00000000E+00  0.00000000E+00  0.00000000E+00
  0.00000000E+00  0.00000000E+00  0.00000000E+00
  0.00000000E+00  0.00000000E+00  0.00000000E+00
  0.00000000E+00  0.00000000E+00  0.00000000E+00
  0.00000000E+00  0.00000000E+00  0.00000000E+00
  0.00000000E+00  0.00000000E+00  0.00000000E+00
  0.00000000E+00  0.00000000E+00  0.00000000E+00
  0.00000000E+00  0.00000000E+00  0.00000000E+00
  0.00000000E+00  0.00000000E+00  0.00000000E+00
  0.00000000E+00  0.00000000E+00  0.00000000E+00
  0.00000000E+00  0.00000000E+00  0.00000000E+00
  0.00000000E+00  0.00000000E+00  0.00000000E+00
  0.00000000E+00  0.00000000E+00  0.00000000E+00
  0.00000000E+00  0.00000000E+00  0.00000000E+00
  0.00000000E+00  0.00000000E+00  0.00000000E+00
  0.00000000E+00  0.00000000E+00  0.00000000E+00
  0.00000000E+00  0.00000000E+00  0.00000000E+00
  0.00000000E+00  0.00000000E+00  0.00000000E+00
  0.00000000E+00  0.00000000E+00  0.00000000E+00
  0.00000000E+00  0.00000000E+00  0.00000000E+00
  0.00000000E+00  0.00000000E+00  0.00000000E+00
  0.00000000E+00  0.00000000E+00  0.00000000E+00
  0.00000000E+00  0.00000000E+00  0.00000000E+00
  0.00000000E+00  0.00000000E+00  0.00000000E+00
  0.00000000E+00  0.00000000E+00  0.00000000E+00
  0.00000000E+00  0.00000000E+00  0.00000000E+00
  0.00000000E+00  0.00000000E+00  0.00000000E+00
  0.00000000E+00  0.00000000E+00  0.00000000E+00
  0.00000000E+00  0.00000000E+00  0.00000000E+00
  0.00000000E+00  0.00000000E+00  0.00000000E+00
  0.00000000E+00  0.00000000E+00  0.00000000E+00
  0.00000000E+00  0.00000000E+00  0.00000000E+00
  0.00000000E+00  0.00000000E+00  0.00000000E+00
  0.00000000E+00  0.00000000E+00  0.00000000E+00
  0.00000000E+00  0.00000000E+00  0.00000000E+00
  0.00000000E+00  0.00000000E+00  0.00000000E+00
  0.00000000E+00  0.00000000E+00  0.00000000E+00
  0.00000000E+00  0.00000000E+00  0.00000000E+00
  0.00000000E+00  0.00000000E+00  0.00000000E+00
  0.00000000E+00  0.00000000E+00  0.00000000E+00
  0.00000000E+00  0.00000000E+00  0.00000000E+00
  0.00000000E+00  0.00000000E+00  0.00000000E+00
  0.00000000E+00  0.00000000E+00  0.00000000E+00
  0.00000000E+00  0.00000000E+00  0.00000000E+00
  0.00000000E+00  0.00000000E+00  0.00000000E+00
  0.00000000E+00  0.00000000E+00  0.00000000E+00
  0.00000000E+00  0.00000000E+00  0.00000000E+00
  0.00000000E+00  0.00000000E+00  0.00000000E+00
  0.00000000E+00  0.00000000E+00  0.00000000E+00
  0.00000000E+00  0.00000000E+00  0.00000000E+00
  0.00000000E+00  0.00000000E+00  0.00000000E+00
  0.00000000E+00  0.00000000E+00  0.00000000E+00
  0.00000000E+00  0.00000000E+00  0.00000000E+00
  0.00000000E+00  0.00000000E+00  0.00000000E+00
  0.00000000E+00  0.00000000E+00  0.00000000E+00
  0.00000000E+00  0.00000000E+00  0.00000000E+00
  0.00000000E+00  0.00000000E+00  0.00000000E+00
  0.00000000E+00  0.00000000E+00  0.00000000E+00
  0.00000000E+00  0.00000000E+00  0.00000000E+00
  0.00000000E+00  0.00000000E+00  0.00000000E+00
  0.00000000E+00  0.00000000E+00  0.00000000E+00
  0.00000000E+00  0.00000000E+00  0.00000000E+00
  0.00000000E+00  0.00000000E+00  0.00000000E+00
  0.00000000E+00  0.00000000E+00  0.00000000E+00
  0.00000000E+00  0.00000000E+00  0.00000000E+00
  0.00000000E+00  0.00000000E+00  0.00000000E+00
  0.00000000E+00  0.00000000E+00  0.00000000E+00
  0.00000000E+00  0.00000000E+00  0.00000000E+00
  0.00000000E+00  0.00000000E+00  0.00000000E+00
  0.00000000E+00  0.00000000E+00  0.00000000E+00
  0.00000000E+00  0.00000000E+00  0.00000000E+00
  0.00000000E+00  0.00000000E+00  0.00000000E+00
  0.00000000E+00  0.00000000E+00  0.00000000E+00
  0.00000000E+00  0.00000000E+00  0.00000000E+00
  0.00000000E+00  0.00000000E+00  0.00000000E+00
  0.00000000E+00  0.00000000E+00  0.00000000E+00
  0.00000000E+00  0.00000000E+00  0.00000000E+00
  0.00000000E+00  0.00000000E+00  0.00000000E+00
  0.00000000E+00  0.00000000E+00  0.00000000E+00
  0.00000000E+00  0.00000000E+00  0.00000000E+00
  0.00000000E+00  0.00000000E+00  0.00000000E+00
  0.00000000E+00  0.00000000E+00  0.00000000E+00
  0.00000000E+00  0.00000000E+00  0.00000000E+00
  0.00000000E+00  0.00000000E+00  0.00000000E+00
  0.00000000E+00  0.00000000E+00  0.00000000E+00
  0.00000000E+00  0.00000000E+00  0.00000000E+00
  0.00000000E+00  0.00000000E+00  0.00000000E+00
  0.00000000E+00  0.00000000E+00  0.00000000E+00
  0.00000000E+00  0.00000000E+00  0.00000000E+00
  0.00000000E+00  0.00000000E+00  0.00000000E+00
  0.00000000E+00  0.00000000E+00  0.00000000E+00
  0.00000000E+00  0.00000000E+00  0.00000000E+00
  0.00000000E+00  0.00000000E+00  0.00000000E+00
  0.00000000E+00  0.00000000E+00  0.00000000E+00
  0.00000000E+00  0.00000000E+00  0.00000000E+00
  0.00000000E+00  0.00000000E+00  0.00000000E+00
  0.00000000E+00  0.00000000E+00  0.00000000E+00
  0.00000000E+00  0.00000000E+00  0.00000000E+00
  0.00000000E+00  0.00000000E+00  0.00000000E+00
  0.00000000E+00  0.00000000E+00  0.00000000E+00
  0.00000000E+00  0.00000000E+00  0.00000000E+00
  0.00000000E+00  0.00000000E+00  0.00000000E+00
  0.00000000E+00  0.00000000E+00  0.00000000E+00
  0.00000000E+00  0.00000000E+00  0.00000000E+00
  0.00000000E+00  0.00000000E+00  0.00000000E+00
  0.00000000E+00  0.00000000E+00  0.00000000E+00
  0.00000000E+00  0.00000000E+00  0.00000000E+00
  0.00000000E+00  0.00000000E+00  0.00000000E+00
  0.00000000E+00  0.00000000E+00  0.00000000E+00
  0.00000000E+00  0.00000000E+00  0.00000000E+00
  0.00000000E+00  0.00000000E+00  0.00000000E+00
  0.00000000E+00  0.00000000E+00  0.00000000E+00
  0.00000000E+00  0.00000000E+00  0.00000000E+00
  0.00000000E+00  0.00000000E+00  0.00000000E+00
  0.00000000E+00  0.00000000E+00  0.00000000E+00
  0.00000000E+00  0.00000000E+00  0.00000000E+00
  0.00000000E+00  0.00000000E+00  0.00000000E+00
  0.00000000E+00  0.00000000E+00  0.00000000E+00
  0.00000000E+00  0.00000000E+00  0.00000000E+00
  0.00000000E+00  0.00000000E+00  0.00000000E+00
  0.00000000E+00  0.00000000E+00  0.00000000E+00
  0.00000000E+00  0.00000000E+00  0.00000000E+00
  0.00000000E+00  0.00000000E+00  0.00000000E+00
  0.00000000E+00  0.00000000E+00  0.00000000E+00
  0.00000000E+00  0.00000000E+00  0.00000000E+00
  0.00000000E+00  0.00000000E+00  0.00000000E+00
  0.00000000E+00  0.00000000E+00  0.00000000E+00
  0.00000000E+00  0.00000000E+00  0.00000000E+00
  0.00000000E+00  0.00000000E+00  0.00000000E+00
  0.00000000E+00  0.00000000E+00  0.00000000E+00
  0.00000000E+00  0.00000000E+00  0.00000000E+00
