ba8 si8 c8                              
   1.00000000000000     
     8.9532614760895068    0.0000000000000000    0.0000000000000000
    -0.0000000000000000    6.0852716689422870    0.0000000000000000
     0.0000000000000000    0.0000000000000000   11.4746968605424016
   Ba   Si   C 
     8     8     8
Direct
 -0.0243237263051984  0.2500000000663931  0.6528516153086026
  0.0243237295684298  0.7500000176088264  0.3471483847172541
  0.5243237296017259  0.7500000176088264  0.1528515535829380
  0.4756762703316751  0.2500000000663931  0.8471484258432758
  0.1178646024724732  0.7500000176088264  0.9288658085726460
  0.8821353975719283  0.2500000000663931  0.0711341708535682
  0.3821353974942305  0.2500000000663931  0.4288658907859006
  0.6178646024391704  0.7500000176088264  0.5711341503530456
  0.2163212052417492  0.0564896257818227  0.1637626961670671
  0.7836787948026461  0.9435103653363007  0.8362372833453424
  0.2836787947249479  0.9435103653363007  0.6637627166934461
  0.7163212052084525  0.0564896257818227  0.3362372833324105
  0.7836787948026461  0.5564896346194325  0.8362372833453424
  0.2163212052417492  0.4435103653510585  0.1637626961670671
  0.7163212052084525  0.4435103653510585  0.3362372833324105
  0.2836787947249479  0.5564896346194325  0.6637627166934461
  0.1507109437669243  0.7500000176088264  0.5654640665868341
  0.8492890364094878  0.2500000000663931  0.4345359333528337
  0.3492890628594409  0.2500000000663931  0.0654640049473586
  0.6507109636016108  0.7500000176088264  0.9345359744788554
  0.1979318655325574  0.2500000000663931  0.0210683586525294
  0.8020681213035158  0.7500000176088264 -0.0210683432846837
  0.3020681212258179  0.7500000176088264  0.5210682764996065
  0.6979318787075829  0.2500000000663931  0.4789316413000631
 
  0.00000000E+00  0.00000000E+00  0.00000000E+00
  0.00000000E+00  0.00000000E+00  0.00000000E+00
  0.00000000E+00  0.00000000E+00  0.00000000E+00
  0.00000000E+00  0.00000000E+00  0.00000000E+00
  0.00000000E+00  0.00000000E+00  0.00000000E+00
  0.00000000E+00  0.00000000E+00  0.00000000E+00
  0.00000000E+00  0.00000000E+00  0.00000000E+00
  0.00000000E+00  0.00000000E+00  0.00000000E+00
  0.00000000E+00  0.00000000E+00  0.00000000E+00
  0.00000000E+00  0.00000000E+00  0.00000000E+00
  0.00000000E+00  0.00000000E+00  0.00000000E+00
  0.00000000E+00  0.00000000E+00  0.00000000E+00
  0.00000000E+00  0.00000000E+00  0.00000000E+00
  0.00000000E+00  0.00000000E+00  0.00000000E+00
  0.00000000E+00  0.00000000E+00  0.00000000E+00
  0.00000000E+00  0.00000000E+00  0.00000000E+00
  0.00000000E+00  0.00000000E+00  0.00000000E+00
  0.00000000E+00  0.00000000E+00  0.00000000E+00
  0.00000000E+00  0.00000000E+00  0.00000000E+00
  0.00000000E+00  0.00000000E+00  0.00000000E+00
  0.00000000E+00  0.00000000E+00  0.00000000E+00
  0.00000000E+00  0.00000000E+00  0.00000000E+00
  0.00000000E+00  0.00000000E+00  0.00000000E+00
  0.00000000E+00  0.00000000E+00  0.00000000E+00
