ba8 si16                                
   1.00000000000000     
    61.4137202339900554    0.0000000000000000    0.0776550366037517
     0.0000000000000000    6.6989449553599592    0.0000000000000000
     0.0147646497352910    0.0000000000000000   11.4776459644996436
   Ba   Si
    40    80
Direct
  0.0158026444893106  0.2500000000663931  0.7061302383979541
  0.1585802995677903  0.2500000000663931  0.6936034014324610
  0.3043853456081102  0.2500000000663931  0.6925362983826957
  0.4503987279204755  0.2500000000663931  0.6901590566089365
  0.5964095169783439  0.2500000000663931  0.6887458070788361
  0.1537875632603057  0.7500000176088264  0.3112541929470209
  0.2997983682056395  0.7500000176088264  0.3098409434169205
  0.4458117505180049  0.7500000176088264  0.3074637016431609
  0.5916168124457906  0.7500000176088264  0.3063965985933962
  0.7343944680238739  0.7500000176088264  0.2938697616279023
  0.0792554397948018  0.7500000176088264  0.1967251327412314
  0.2267222404282297  0.7500000176088264  0.1932325012430533
  0.3727809484498182  0.7500000176088264  0.1911367520404533
  0.5188636557201034  0.7500000176088264  0.1891139523177989
  0.6642417805811899  0.7500000176088264  0.1884412813501600
  0.0859553314157355  0.2500000000663931  0.8115586980760535
  0.2313334880517461  0.2500000000663931  0.8108860271084152
  0.3774161476762968  0.2500000000663931  0.8088632273857611
  0.5234748874561610  0.2500000000663931  0.8067674781831606
  0.6709417039770537  0.2500000000663931  0.8032748466849825
  0.0417230639480530  0.7500000176088264  0.9157911094686991
  0.1798137621034749  0.7500000176088264  0.9087834914238148
  0.3253892429460772  0.7500000176088264  0.9067164787444708
  0.4714991939514532  0.7500000176088264  0.9041224928590063
  0.6181412316832734  0.7500000176088264  0.9031471642426002
  0.1320558247408324  0.2500000000663931  0.0968528151836139
  0.2786979021746619  0.2500000000663931  0.0958774865672077
  0.4248078531800379  0.2500000000663931  0.0932835006817429
  0.5703833657975713  0.2500000000663931  0.0912164880023991
  0.7084740639363383  0.2500000000663931  0.0842088699575147
  0.0606994260931098  0.2500000000663931  0.3993518146909997
  0.2057568193393776  0.2500000000663931  0.4072673659537981
  0.3517235112364611  0.2500000000663931  0.4063408428667913
  0.4977356799169172  0.2500000000663931  0.4042313844741498
  0.6432249511345628  0.2500000000663931  0.4008931294307139
  0.1069721132166213  0.7500000176088264  0.5991069117082325
  0.2524614162091979  0.7500000176088264  0.5957686566647966
  0.3984735848896540  0.7500000176088264  0.5936591982721555
  0.5444403085450136  0.7500000176088264  0.5927326751851483
  0.6894977017912811  0.7500000176088264  0.6006482264479470
  0.0369884635780639  0.0714843024887297  0.1489563770375502
  0.1839300606533472  0.0702366208921482  0.1484619577041843
  0.3301084715871096  0.0702052452025989  0.1468764327888229
  0.4762355267457572  0.0699954822683114  0.1446011129764042
  0.6213137713965362  0.0697164867604397  0.1422393633872538
  0.1288833485607699  0.9302835043576760  0.8577606161251563
  0.2739616011386339  0.9300045088498122  0.8553988665360053
  0.4200886245390055  0.9297947459155179  0.8531235467235867
  0.5662670195853020  0.9297633702259753  0.8515380218082255
  0.7132086067517397  0.9285156886293938  0.8510436024748594
  0.0555921100475013  0.9284919951503726  0.6454697461499932
  0.2010256266880688  0.9299250459753575  0.6480217403409059
  0.3470089266016940  0.9298832148863301  0.6469109568206229
  0.4929913349902275  0.9298769852566351  0.6446367472134128
  0.6391002086100259  0.9306847606947469  0.6428644925614391
  0.1110969272180979  0.0693152304233768  0.3571355074644177
  0.2572058087816220  0.0701230058614888  0.3553632528124431
  0.4031881695244210  0.0701167762317933  0.3530890432052340
  0.5491715012129774  0.0700749451427660  0.3519782596849506
  0.6946049463766050  0.0715079959677510  0.3545302538758636
  0.1288833485607699  0.5697164955980571  0.8577606161251563
  0.2739616011386339  0.5699954911059210  0.8553988665360053
  0.4200886245390055  0.5702052540402153  0.8531235467235867
  0.5662670195853020  0.5702366297297579  0.8515380218082255
  0.7132086067517397  0.5714843113263394  0.8510436024748594
  0.0369884635780639  0.4285156886441517  0.1489563770375502
  0.1839300606533472  0.4297633702407333  0.1484619577041843
  0.3301084715871096  0.4297947459302826  0.1468764327888229
  0.4762355267457572  0.4300045088645699  0.1446011129764042
  0.6213137713965362  0.4302835043724417  0.1422393633872538
  0.1110969272180979  0.4306847607095045  0.3571355074644177
  0.2572058087816220  0.4298769852713923  0.3553632528124431
  0.4031881695244210  0.4298832149010879  0.3530890432052340
  0.5491715012129774  0.4299250459901157  0.3519782596849506
  0.6946049463766050  0.4284919951651305  0.3545302538758636
  0.0555921100475013  0.5715080048053606  0.6454697461499932
  0.2010256266880688  0.5700749539803757  0.6480217403409059
  0.3470089266016940  0.5701167850694031  0.6469109568206229
  0.4929913349902275  0.5701230146990981  0.6446367472134128
  0.6391002086100259  0.5693152392609863  0.6428644925614391
  0.0211073638752048  0.7500000176088264  0.6244033182808697
  0.1683440476594027  0.7500000176088264  0.5938466426021467
  0.3143010713200604  0.7500000176088264  0.5926829119449613
  0.4602768815177916  0.7500000176088264  0.5902718500130233
  0.6065225568119365  0.7500000176088264  0.5882158476096492
  0.1436745234267197  0.2500000000663931  0.4117841523300186
  0.2899202463832546  0.2500000000663931  0.4097281499266451
  0.4358960565643307  0.2500000000663931  0.4073170879947066
  0.5818530643541783  0.2500000000663931  0.4061533573375209
  0.7290897461399534  0.2500000000663931  0.3755966816587983
  0.0703598200696660  0.2500000000663931  0.0863312664096933
  0.2166657580206161  0.2500000000663931  0.0936907979960508
  0.3628204126795606  0.2500000000663931  0.0917437988392349
  0.5089290782636405  0.2500000000663931  0.0896457923994444
  0.6537853069562772  0.2500000000663931  0.0873065210476393
  0.0964118050573036  0.7500000176088264  0.9126934583785749
  0.2412680655082164  0.7500000176088264  0.9103541870267693
  0.3873766834465545  0.7500000176088264  0.9082561805869788
  0.5335314016386993  0.7500000176088264  0.9063091814301630
  0.6798373276657187  0.7500000176088264  0.9136687130165202
  0.0373406629978529  0.2500000000663931  0.9665388043304359
  0.1845283972262879  0.2500000000663931  0.9668183960032881
  0.3307079971960967  0.2500000000663931  0.9650058495942321
  0.4767996658455598  0.2500000000663931  0.9627732462940585
  0.6224613410754222  0.2500000000663931  0.9598796507793462
  0.1277357312361498  0.7500000176088264  0.0401203645884995
  0.2733974302805552  0.7500000176088264  0.0372267690737869
  0.4194891306882944  0.7500000176088264  0.0349941657736140
  0.5656687306747512  0.7500000176088264  0.0331816193645575
  0.7128564549610302  0.7500000176088264  0.0334612110374095
  0.0476199546734904  0.7500000176088264  0.4658793373125986
  0.2005309133929972  0.7500000176088264  0.4662637627207299
  0.3464898932722337  0.7500000176088264  0.4651551457637180
  0.4924633756727735  0.7500000176088264  0.4629067581872471
  0.6386612598805240  0.7500000176088264  0.4610356689163329
  0.1115358521330492  0.2500000000663931  0.5389642488833378
  0.2577337522282727  0.2500000000663931  0.5370931596124225
  0.4037072028538814  0.2500000000663931  0.5348447720359519
  0.5496661668623072  0.2500000000663931  0.5337361550789397
  0.7025771851348307  0.2500000000663931  0.5341205804870708
 
  0.00000000E+00  0.00000000E+00  0.00000000E+00
  0.00000000E+00  0.00000000E+00  0.00000000E+00
  0.00000000E+00  0.00000000E+00  0.00000000E+00
  0.00000000E+00  0.00000000E+00  0.00000000E+00
  0.00000000E+00  0.00000000E+00  0.00000000E+00
  0.00000000E+00  0.00000000E+00  0.00000000E+00
  0.00000000E+00  0.00000000E+00  0.00000000E+00
  0.00000000E+00  0.00000000E+00  0.00000000E+00
  0.00000000E+00  0.00000000E+00  0.00000000E+00
  0.00000000E+00  0.00000000E+00  0.00000000E+00
  0.00000000E+00  0.00000000E+00  0.00000000E+00
  0.00000000E+00  0.00000000E+00  0.00000000E+00
  0.00000000E+00  0.00000000E+00  0.00000000E+00
  0.00000000E+00  0.00000000E+00  0.00000000E+00
  0.00000000E+00  0.00000000E+00  0.00000000E+00
  0.00000000E+00  0.00000000E+00  0.00000000E+00
  0.00000000E+00  0.00000000E+00  0.00000000E+00
  0.00000000E+00  0.00000000E+00  0.00000000E+00
  0.00000000E+00  0.00000000E+00  0.00000000E+00
  0.00000000E+00  0.00000000E+00  0.00000000E+00
  0.00000000E+00  0.00000000E+00  0.00000000E+00
  0.00000000E+00  0.00000000E+00  0.00000000E+00
  0.00000000E+00  0.00000000E+00  0.00000000E+00
  0.00000000E+00  0.00000000E+00  0.00000000E+00
  0.00000000E+00  0.00000000E+00  0.00000000E+00
  0.00000000E+00  0.00000000E+00  0.00000000E+00
  0.00000000E+00  0.00000000E+00  0.00000000E+00
  0.00000000E+00  0.00000000E+00  0.00000000E+00
  0.00000000E+00  0.00000000E+00  0.00000000E+00
  0.00000000E+00  0.00000000E+00  0.00000000E+00
  0.00000000E+00  0.00000000E+00  0.00000000E+00
  0.00000000E+00  0.00000000E+00  0.00000000E+00
  0.00000000E+00  0.00000000E+00  0.00000000E+00
  0.00000000E+00  0.00000000E+00  0.00000000E+00
  0.00000000E+00  0.00000000E+00  0.00000000E+00
  0.00000000E+00  0.00000000E+00  0.00000000E+00
  0.00000000E+00  0.00000000E+00  0.00000000E+00
  0.00000000E+00  0.00000000E+00  0.00000000E+00
  0.00000000E+00  0.00000000E+00  0.00000000E+00
  0.00000000E+00  0.00000000E+00  0.00000000E+00
  0.00000000E+00  0.00000000E+00  0.00000000E+00
  0.00000000E+00  0.00000000E+00  0.00000000E+00
  0.00000000E+00  0.00000000E+00  0.00000000E+00
  0.00000000E+00  0.00000000E+00  0.00000000E+00
  0.00000000E+00  0.00000000E+00  0.00000000E+00
  0.00000000E+00  0.00000000E+00  0.00000000E+00
  0.00000000E+00  0.00000000E+00  0.00000000E+00
  0.00000000E+00  0.00000000E+00  0.00000000E+00
  0.00000000E+00  0.00000000E+00  0.00000000E+00
  0.00000000E+00  0.00000000E+00  0.00000000E+00
  0.00000000E+00  0.00000000E+00  0.00000000E+00
  0.00000000E+00  0.00000000E+00  0.00000000E+00
  0.00000000E+00  0.00000000E+00  0.00000000E+00
  0.00000000E+00  0.00000000E+00  0.00000000E+00
  0.00000000E+00  0.00000000E+00  0.00000000E+00
  0.00000000E+00  0.00000000E+00  0.00000000E+00
  0.00000000E+00  0.00000000E+00  0.00000000E+00
  0.00000000E+00  0.00000000E+00  0.00000000E+00
  0.00000000E+00  0.00000000E+00  0.00000000E+00
  0.00000000E+00  0.00000000E+00  0.00000000E+00
  0.00000000E+00  0.00000000E+00  0.00000000E+00
  0.00000000E+00  0.00000000E+00  0.00000000E+00
  0.00000000E+00  0.00000000E+00  0.00000000E+00
  0.00000000E+00  0.00000000E+00  0.00000000E+00
  0.00000000E+00  0.00000000E+00  0.00000000E+00
  0.00000000E+00  0.00000000E+00  0.00000000E+00
  0.00000000E+00  0.00000000E+00  0.00000000E+00
  0.00000000E+00  0.00000000E+00  0.00000000E+00
  0.00000000E+00  0.00000000E+00  0.00000000E+00
  0.00000000E+00  0.00000000E+00  0.00000000E+00
  0.00000000E+00  0.00000000E+00  0.00000000E+00
  0.00000000E+00  0.00000000E+00  0.00000000E+00
  0.00000000E+00  0.00000000E+00  0.00000000E+00
  0.00000000E+00  0.00000000E+00  0.00000000E+00
  0.00000000E+00  0.00000000E+00  0.00000000E+00
  0.00000000E+00  0.00000000E+00  0.00000000E+00
  0.00000000E+00  0.00000000E+00  0.00000000E+00
  0.00000000E+00  0.00000000E+00  0.00000000E+00
  0.00000000E+00  0.00000000E+00  0.00000000E+00
  0.00000000E+00  0.00000000E+00  0.00000000E+00
  0.00000000E+00  0.00000000E+00  0.00000000E+00
  0.00000000E+00  0.00000000E+00  0.00000000E+00
  0.00000000E+00  0.00000000E+00  0.00000000E+00
  0.00000000E+00  0.00000000E+00  0.00000000E+00
  0.00000000E+00  0.00000000E+00  0.00000000E+00
  0.00000000E+00  0.00000000E+00  0.00000000E+00
  0.00000000E+00  0.00000000E+00  0.00000000E+00
  0.00000000E+00  0.00000000E+00  0.00000000E+00
  0.00000000E+00  0.00000000E+00  0.00000000E+00
  0.00000000E+00  0.00000000E+00  0.00000000E+00
  0.00000000E+00  0.00000000E+00  0.00000000E+00
  0.00000000E+00  0.00000000E+00  0.00000000E+00
  0.00000000E+00  0.00000000E+00  0.00000000E+00
  0.00000000E+00  0.00000000E+00  0.00000000E+00
  0.00000000E+00  0.00000000E+00  0.00000000E+00
  0.00000000E+00  0.00000000E+00  0.00000000E+00
  0.00000000E+00  0.00000000E+00  0.00000000E+00
  0.00000000E+00  0.00000000E+00  0.00000000E+00
  0.00000000E+00  0.00000000E+00  0.00000000E+00
  0.00000000E+00  0.00000000E+00  0.00000000E+00
  0.00000000E+00  0.00000000E+00  0.00000000E+00
  0.00000000E+00  0.00000000E+00  0.00000000E+00
  0.00000000E+00  0.00000000E+00  0.00000000E+00
  0.00000000E+00  0.00000000E+00  0.00000000E+00
  0.00000000E+00  0.00000000E+00  0.00000000E+00
  0.00000000E+00  0.00000000E+00  0.00000000E+00
  0.00000000E+00  0.00000000E+00  0.00000000E+00
  0.00000000E+00  0.00000000E+00  0.00000000E+00
  0.00000000E+00  0.00000000E+00  0.00000000E+00
  0.00000000E+00  0.00000000E+00  0.00000000E+00
  0.00000000E+00  0.00000000E+00  0.00000000E+00
  0.00000000E+00  0.00000000E+00  0.00000000E+00
  0.00000000E+00  0.00000000E+00  0.00000000E+00
  0.00000000E+00  0.00000000E+00  0.00000000E+00
  0.00000000E+00  0.00000000E+00  0.00000000E+00
  0.00000000E+00  0.00000000E+00  0.00000000E+00
  0.00000000E+00  0.00000000E+00  0.00000000E+00
  0.00000000E+00  0.00000000E+00  0.00000000E+00
  0.00000000E+00  0.00000000E+00  0.00000000E+00
  0.00000000E+00  0.00000000E+00  0.00000000E+00
