ba8 si16                                
   1.00000000000000     
    59.5712891368021147    0.0000000000000000   -0.0073228617950494
     0.0000000000000000    6.6914554217292572    0.0000000000000000
    -0.0015568276350931    0.0000000000000000   11.4563941356266490
   Ba   Si
    40    80
Direct
  0.0054057781725596  0.2500000000663931  0.7003878092076706
  0.1525758021255084  0.2500000000663931  0.6902288689620599
  0.3024505102150938  0.2500000000663931  0.6911776995580119
  0.4525650460867865  0.2500000000663931  0.6913969001676558
  0.6026047808741767  0.2500000000663931  0.6919385576961073
  0.1475922993644730  0.7500000176088264  0.3080614423297492
  0.2976320500393286  0.7500000176088264  0.3086030998582011
  0.4477465859110212  0.7500000176088264  0.3088223004678441
  0.5976213098880723  0.7500000176088264  0.3097711310637965
  0.7447913343406246  0.7500000176088264  0.2996121908181860
  0.0708190388234084  0.7500000176088264  0.1922098648219071
  0.2225471697883490  0.7500000176088264  0.1910980352891441
  0.3726890165809567  0.7500000176088264  0.1911242529410341
  0.5227985406129001  0.7500000176088264  0.1913882697667441
  0.6724478425879886  0.7500000176088264  0.1917895806471654
  0.0777492694089369  0.2500000000663931  0.8082103987790484
  0.2273986031589494  0.2500000000663931  0.8086117096594697
  0.3775080795451584  0.2500000000663931  0.8088757264851794
  0.5276499580960421  0.2500000000663931  0.8089019441370695
  0.6793781049484484  0.2500000000663931  0.8077901146043071
  0.0319982943995036  0.7500000176088264  0.9114602404839555
  0.1744913965817393  0.7500000176088264  0.9058317221631998
  0.3241122085627171  0.7500000176088264  0.9057235376293498
  0.4742711494333421  0.7500000176088264  0.9061095700271764
  0.6248805280388472  0.7500000176088264  0.9072676553867549
  0.1253165283852588  0.2500000000663931  0.0927323240394584
  0.2759259466927729  0.2500000000663931  0.0938904093990374
  0.4260848875633980  0.2500000000663931  0.0942764417968640
  0.5757057313193072  0.2500000000663931  0.0941682572630139
  0.7181988334848877  0.2500000000663931  0.0885397389422582
  0.0518261912201006  0.2500000000663931  0.3951855639783183
  0.2009773061889061  0.2500000000663931  0.4050204230087286
  0.3509905431952835  0.2500000000663931  0.4058047577591603
  0.5009923325007701  0.2500000000663931  0.4062528800581314
  0.6507780295663850  0.2500000000663931  0.4052118717295787
  0.0994190347847990  0.7500000176088264  0.5947881694093681
  0.2492047636253446  0.7500000176088264  0.5937471610808150
  0.3992065529308316  0.7500000176088264  0.5941952833797859
  0.5492198216954848  0.7500000176088264  0.5949796181302175
  0.6983709366642906  0.7500000176088264  0.6048144771606282
  0.0271045437596898  0.0712507052888912  0.1450294241789263
  0.1786540329385340  0.0701471117334342  0.1459222465217056
  0.3287957402809897  0.0699995843462299  0.1459672381078728
  0.4790017760148194  0.0700732177885091  0.1464293245400758
  0.6282431247591842  0.0697281258190900  0.1463011284415986
  0.1219539951981220  0.9302718652990336  0.8536988510708109
  0.2711953518695717  0.9299267733296143  0.8535706549723338
  0.4214013558451254  0.9300004067718932  0.8540327414045370
  0.5715430473001157  0.9298528793846890  0.8540777329907046
  0.7230925265701146  0.9287492858292322  0.8549705553334834
  0.0465496450384035  0.9287792984342437  0.6413999415907283
  0.1963200625005304  0.9299509461762485  0.6455526687521107
  0.3462704550407651  0.9299713168131288  0.6462571320242498
  0.4963866839913809  0.9299663163998381  0.6465061772731359
  0.6465047904088209  0.9306353945117004  0.6474538668516416
  0.1036923454193028  0.0693645966064232  0.3525461331742143
  0.2538104597804687  0.0700336747182850  0.3534938227527210
  0.4039266410853500  0.0700286743049947  0.3537428680016066
  0.5538770654005155  0.0700490449418749  0.3544473312737458
  0.7036474113857032  0.0712206926838796  0.3586000584351286
  0.1219539951981220  0.5697281346566996  0.8536988510708109
  0.2711953518695717  0.5700732266261189  0.8535706549723338
  0.4214013558451254  0.5699995931838400  0.8540327414045370
  0.5715430473001157  0.5701471205710442  0.8540777329907046
  0.7230925265701146  0.5712507141265010  0.8549705553334834
  0.0271045437596898  0.4287492858439902  0.1450294241789263
  0.1786540329385340  0.4298528793994473  0.1459222465217056
  0.3287957402809897  0.4300004067866516  0.1459672381078728
  0.4790017760148194  0.4299267733443725  0.1464293245400758
  0.6282431247591842  0.4302718653137915  0.1463011284415986
  0.1036923454193028  0.4306353945264582  0.3525461331742143
  0.2538104597804687  0.4299663164145966  0.3534938227527210
  0.4039266410853500  0.4299713168278866  0.3537428680016066
  0.5538770654005155  0.4299509461910065  0.3544473312737458
  0.7036474113857032  0.4287792984490018  0.3586000584351286
  0.0465496450384035  0.5712207015214895  0.6413999415907283
  0.1963200625005304  0.5700490537794847  0.6455526687521107
  0.3462704550407651  0.5700286831426044  0.6462571320242498
  0.4963866839913809  0.5700336835558951  0.6465061772731359
  0.6465047904088209  0.5693646054440328  0.6474538668516416
  0.0110481072505621  0.7500000176088264  0.6181214967243398
  0.1625835755553573  0.7500000176088264  0.5915120646966973
  0.3125672765633682  0.7500000176088264  0.5915060537126883
  0.4626593208270196  0.7500000176088264  0.5921378240751255
  0.6129338822046778  0.7500000176088264  0.5922257381370860
  0.1372631980339790  0.2500000000663931  0.4077742618025821
  0.2875378070740266  0.2500000000663931  0.4078621758645422
  0.4376298513210228  0.2500000000663931  0.4084939462269798
  0.5876135364582232  0.2500000000663931  0.4084879352429703
  0.7391490027645959  0.2500000000663931  0.3818785032153280
  0.0614633821069267  0.2500000000663931  0.0822478879088341
  0.2124279253954232  0.2500000000663931  0.0918520178592755
  0.3625055197166649  0.2500000000663931  0.0916038296227673
  0.5127047282754259  0.2500000000663931  0.0917952847329856
  0.6617067906355564  0.2500000000663931  0.0915089083996532
  0.0884903213780241  0.7500000176088264  0.9084910710265605
  0.2374924154964303  0.7500000176088264  0.9082046946932280
  0.3876915764094501  0.7500000176088264  0.9083961498034466
  0.5377692342638921  0.7500000176088264  0.9081479615669382
  0.6887337656284650  0.7500000176088264  0.9177520915173797
  0.0273616152944710  0.2500000000663931  0.9622201294412738
  0.1793372026164723  0.2500000000663931  0.9639816926901716
  0.3294134563441508  0.2500000000663931  0.9639894011014108
  0.4795729950302877  0.2500000000663931  0.9643525823502836
  0.6293534220820255  0.2500000000663931  0.9635425728192819
  0.1208436502295462  0.7500000176088264  0.0364574425485639
  0.2706241010958274  0.7500000176088264  0.0356474330175620
  0.4207836715402403  0.7500000176088264  0.0360106142664347
  0.5708599252845739  0.7500000176088264  0.0360183226776738
  0.7228355026644125  0.7500000176088264  0.0377798859265718
  0.0387129325158582  0.7500000176088264  0.4612101280932668
  0.1956488748345031  0.7500000176088264  0.4635783269362762
  0.3456750278791124  0.7500000176088264  0.4641956202868266
  0.4957474245293060  0.7500000176088264  0.4644896830018878
  0.6459749193781757  0.7500000176088264  0.4651314675928143
  0.1042221926353979  0.2500000000663931  0.5348684502068555
  0.2544497033717402  0.2500000000663931  0.5355102347977821
  0.4045220682470027  0.2500000000663931  0.5358042975128432
  0.5545482054208019  0.2500000000663931  0.5364215908633939
  0.7114842072924631  0.2500000000663931  0.5387897897064028
 
  0.00000000E+00  0.00000000E+00  0.00000000E+00
  0.00000000E+00  0.00000000E+00  0.00000000E+00
  0.00000000E+00  0.00000000E+00  0.00000000E+00
  0.00000000E+00  0.00000000E+00  0.00000000E+00
  0.00000000E+00  0.00000000E+00  0.00000000E+00
  0.00000000E+00  0.00000000E+00  0.00000000E+00
  0.00000000E+00  0.00000000E+00  0.00000000E+00
  0.00000000E+00  0.00000000E+00  0.00000000E+00
  0.00000000E+00  0.00000000E+00  0.00000000E+00
  0.00000000E+00  0.00000000E+00  0.00000000E+00
  0.00000000E+00  0.00000000E+00  0.00000000E+00
  0.00000000E+00  0.00000000E+00  0.00000000E+00
  0.00000000E+00  0.00000000E+00  0.00000000E+00
  0.00000000E+00  0.00000000E+00  0.00000000E+00
  0.00000000E+00  0.00000000E+00  0.00000000E+00
  0.00000000E+00  0.00000000E+00  0.00000000E+00
  0.00000000E+00  0.00000000E+00  0.00000000E+00
  0.00000000E+00  0.00000000E+00  0.00000000E+00
  0.00000000E+00  0.00000000E+00  0.00000000E+00
  0.00000000E+00  0.00000000E+00  0.00000000E+00
  0.00000000E+00  0.00000000E+00  0.00000000E+00
  0.00000000E+00  0.00000000E+00  0.00000000E+00
  0.00000000E+00  0.00000000E+00  0.00000000E+00
  0.00000000E+00  0.00000000E+00  0.00000000E+00
  0.00000000E+00  0.00000000E+00  0.00000000E+00
  0.00000000E+00  0.00000000E+00  0.00000000E+00
  0.00000000E+00  0.00000000E+00  0.00000000E+00
  0.00000000E+00  0.00000000E+00  0.00000000E+00
  0.00000000E+00  0.00000000E+00  0.00000000E+00
  0.00000000E+00  0.00000000E+00  0.00000000E+00
  0.00000000E+00  0.00000000E+00  0.00000000E+00
  0.00000000E+00  0.00000000E+00  0.00000000E+00
  0.00000000E+00  0.00000000E+00  0.00000000E+00
  0.00000000E+00  0.00000000E+00  0.00000000E+00
  0.00000000E+00  0.00000000E+00  0.00000000E+00
  0.00000000E+00  0.00000000E+00  0.00000000E+00
  0.00000000E+00  0.00000000E+00  0.00000000E+00
  0.00000000E+00  0.00000000E+00  0.00000000E+00
  0.00000000E+00  0.00000000E+00  0.00000000E+00
  0.00000000E+00  0.00000000E+00  0.00000000E+00
  0.00000000E+00  0.00000000E+00  0.00000000E+00
  0.00000000E+00  0.00000000E+00  0.00000000E+00
  0.00000000E+00  0.00000000E+00  0.00000000E+00
  0.00000000E+00  0.00000000E+00  0.00000000E+00
  0.00000000E+00  0.00000000E+00  0.00000000E+00
  0.00000000E+00  0.00000000E+00  0.00000000E+00
  0.00000000E+00  0.00000000E+00  0.00000000E+00
  0.00000000E+00  0.00000000E+00  0.00000000E+00
  0.00000000E+00  0.00000000E+00  0.00000000E+00
  0.00000000E+00  0.00000000E+00  0.00000000E+00
  0.00000000E+00  0.00000000E+00  0.00000000E+00
  0.00000000E+00  0.00000000E+00  0.00000000E+00
  0.00000000E+00  0.00000000E+00  0.00000000E+00
  0.00000000E+00  0.00000000E+00  0.00000000E+00
  0.00000000E+00  0.00000000E+00  0.00000000E+00
  0.00000000E+00  0.00000000E+00  0.00000000E+00
  0.00000000E+00  0.00000000E+00  0.00000000E+00
  0.00000000E+00  0.00000000E+00  0.00000000E+00
  0.00000000E+00  0.00000000E+00  0.00000000E+00
  0.00000000E+00  0.00000000E+00  0.00000000E+00
  0.00000000E+00  0.00000000E+00  0.00000000E+00
  0.00000000E+00  0.00000000E+00  0.00000000E+00
  0.00000000E+00  0.00000000E+00  0.00000000E+00
  0.00000000E+00  0.00000000E+00  0.00000000E+00
  0.00000000E+00  0.00000000E+00  0.00000000E+00
  0.00000000E+00  0.00000000E+00  0.00000000E+00
  0.00000000E+00  0.00000000E+00  0.00000000E+00
  0.00000000E+00  0.00000000E+00  0.00000000E+00
  0.00000000E+00  0.00000000E+00  0.00000000E+00
  0.00000000E+00  0.00000000E+00  0.00000000E+00
  0.00000000E+00  0.00000000E+00  0.00000000E+00
  0.00000000E+00  0.00000000E+00  0.00000000E+00
  0.00000000E+00  0.00000000E+00  0.00000000E+00
  0.00000000E+00  0.00000000E+00  0.00000000E+00
  0.00000000E+00  0.00000000E+00  0.00000000E+00
  0.00000000E+00  0.00000000E+00  0.00000000E+00
  0.00000000E+00  0.00000000E+00  0.00000000E+00
  0.00000000E+00  0.00000000E+00  0.00000000E+00
  0.00000000E+00  0.00000000E+00  0.00000000E+00
  0.00000000E+00  0.00000000E+00  0.00000000E+00
  0.00000000E+00  0.00000000E+00  0.00000000E+00
  0.00000000E+00  0.00000000E+00  0.00000000E+00
  0.00000000E+00  0.00000000E+00  0.00000000E+00
  0.00000000E+00  0.00000000E+00  0.00000000E+00
  0.00000000E+00  0.00000000E+00  0.00000000E+00
  0.00000000E+00  0.00000000E+00  0.00000000E+00
  0.00000000E+00  0.00000000E+00  0.00000000E+00
  0.00000000E+00  0.00000000E+00  0.00000000E+00
  0.00000000E+00  0.00000000E+00  0.00000000E+00
  0.00000000E+00  0.00000000E+00  0.00000000E+00
  0.00000000E+00  0.00000000E+00  0.00000000E+00
  0.00000000E+00  0.00000000E+00  0.00000000E+00
  0.00000000E+00  0.00000000E+00  0.00000000E+00
  0.00000000E+00  0.00000000E+00  0.00000000E+00
  0.00000000E+00  0.00000000E+00  0.00000000E+00
  0.00000000E+00  0.00000000E+00  0.00000000E+00
  0.00000000E+00  0.00000000E+00  0.00000000E+00
  0.00000000E+00  0.00000000E+00  0.00000000E+00
  0.00000000E+00  0.00000000E+00  0.00000000E+00
  0.00000000E+00  0.00000000E+00  0.00000000E+00
  0.00000000E+00  0.00000000E+00  0.00000000E+00
  0.00000000E+00  0.00000000E+00  0.00000000E+00
  0.00000000E+00  0.00000000E+00  0.00000000E+00
  0.00000000E+00  0.00000000E+00  0.00000000E+00
  0.00000000E+00  0.00000000E+00  0.00000000E+00
  0.00000000E+00  0.00000000E+00  0.00000000E+00
  0.00000000E+00  0.00000000E+00  0.00000000E+00
  0.00000000E+00  0.00000000E+00  0.00000000E+00
  0.00000000E+00  0.00000000E+00  0.00000000E+00
  0.00000000E+00  0.00000000E+00  0.00000000E+00
  0.00000000E+00  0.00000000E+00  0.00000000E+00
  0.00000000E+00  0.00000000E+00  0.00000000E+00
  0.00000000E+00  0.00000000E+00  0.00000000E+00
  0.00000000E+00  0.00000000E+00  0.00000000E+00
  0.00000000E+00  0.00000000E+00  0.00000000E+00
  0.00000000E+00  0.00000000E+00  0.00000000E+00
  0.00000000E+00  0.00000000E+00  0.00000000E+00
  0.00000000E+00  0.00000000E+00  0.00000000E+00
  0.00000000E+00  0.00000000E+00  0.00000000E+00
  0.00000000E+00  0.00000000E+00  0.00000000E+00
