ba8 si16                                
   1.00000000000000     
    24.0094680786000012    0.0000000000000000    0.0000000000000000
     0.0000000000000000    6.7778496741999996    0.0000000000000000
     0.0000000000000000    0.0000000000000000   11.6021432877000006
   Ba   Si
     8    16
Selective dynamics
Direct
  0.0056936146836932  0.2500000000663931  0.7041175621654110   F   T   T
  0.3528927596505937  0.7500000176088264  0.2958824378604454   F   T   T
  0.1819296202106742  0.7500000176088264  0.1882088642210716   F   T   T
  0.1766567528741092  0.2500000000663931  0.8117911152051422   F   T   T
  0.0597801408303269  0.7500000176088264  0.9232933787371792   F   T   T
  0.2988062322961014  0.2500000000663931  0.0767066006890349   F   T   T
  0.1278430928145298  0.2500000000663931  0.4056473487000789   F   T   T
  0.2307432802702465  0.7500000176088264  0.5943526924388677   F   T   T
  0.0728991332615152  0.0716858181193223  0.1553344384274508   F   T   T
  0.2856872398649131  0.9283141729988009  0.8446655410849588   F   T   T
  0.1147241003833415  0.9274135948511164  0.6522769189496943   F   T   T
  0.2438622727014348  0.0725863962670069  0.3477230810761619   F   T   T
  0.2856872398649131  0.5716858269569323  0.8446655410849588   F   T   T
  0.0728991332615152  0.4283141730135591  0.1553344384274508   F   T   T
  0.2438622727014348  0.4274135948658745  0.3477230810761619   F   T   T
  0.1147241003833415  0.5725864051046168  0.6522769189496943   F   T   T
  0.0311098080788312  0.7500000176088264  0.5924789469208379   F   T   T
  0.3274765575922132  0.2500000000663931  0.4075210530188302   F   T   T
  0.1565134280650469  0.2500000000663931  0.0953002139903770   F   T   T
  0.2020729549741418  0.7500000176088264  0.9046997654358367   F   T   T
  0.0741839757202953  0.2500000000663931  0.9746518283229169   F   T   T
  0.2844023924497634  0.7500000176088264  0.0253481870449289   F   T   T
  0.1134392529681918  0.7500000176088264  0.4695200483618075   F   T   T
  0.2451471201165916  0.2500000000663931  0.5304798694378621   F   T   T
 
  0.00000000E+00  0.00000000E+00  0.00000000E+00
  0.00000000E+00  0.00000000E+00  0.00000000E+00
  0.00000000E+00  0.00000000E+00  0.00000000E+00
  0.00000000E+00  0.00000000E+00  0.00000000E+00
  0.00000000E+00  0.00000000E+00  0.00000000E+00
  0.00000000E+00  0.00000000E+00  0.00000000E+00
  0.00000000E+00  0.00000000E+00  0.00000000E+00
  0.00000000E+00  0.00000000E+00  0.00000000E+00
  0.00000000E+00  0.00000000E+00  0.00000000E+00
  0.00000000E+00  0.00000000E+00  0.00000000E+00
  0.00000000E+00  0.00000000E+00  0.00000000E+00
  0.00000000E+00  0.00000000E+00  0.00000000E+00
  0.00000000E+00  0.00000000E+00  0.00000000E+00
  0.00000000E+00  0.00000000E+00  0.00000000E+00
  0.00000000E+00  0.00000000E+00  0.00000000E+00
  0.00000000E+00  0.00000000E+00  0.00000000E+00
  0.00000000E+00  0.00000000E+00  0.00000000E+00
  0.00000000E+00  0.00000000E+00  0.00000000E+00
  0.00000000E+00  0.00000000E+00  0.00000000E+00
  0.00000000E+00  0.00000000E+00  0.00000000E+00
  0.00000000E+00  0.00000000E+00  0.00000000E+00
  0.00000000E+00  0.00000000E+00  0.00000000E+00
  0.00000000E+00  0.00000000E+00  0.00000000E+00
  0.00000000E+00  0.00000000E+00  0.00000000E+00
