ba8 si16                                
   1.00000000000000     
    24.0094680786000012    0.0000000000000000    0.0000000000000000
     0.0000000000000000    6.7778496741999996    0.0000000000000000
     0.0000000000000000    0.0000000000000000   11.6021432877000006
   Ba   Si
     8    16
Selective dynamics
Direct
  0.0056936146836932  0.2500000000663931  0.6404347877958237   F   T   T
  0.3279026183431810  0.7500000176088264  0.3595652122300331   F   T   T
  0.1819296202106742  0.7500000176088264  0.1822098192458872   F   T   T
  0.1516666115666965  0.2500000000663931  0.8177901601803261   F   T   T
  0.0597801408303269  0.7500000176088264  0.9645106217032060   F   T   T
  0.2738160909886886  0.2500000000663931  0.0354893577230079   F   T   T
  0.1278430928145298  0.2500000000663931  0.4353365607765226   F   T   T
  0.2057531389628409  0.7500000176088264  0.5646634803624244   F   T   T
  0.0728991332615152  0.0719487241836680  0.1970424004081252   F   T   T
  0.2606970985575003  0.9280512669344553  0.8029575791042840   F   T   T
  0.1147241003833415  0.9283511161146029  0.6464287231595990   F   T   T
  0.2188721313940221  0.0716488750035211  0.3535712768662578   F   T   T
  0.2606970985575003  0.5719487330212779  0.8029575791042840   F   T   T
  0.0728991332615152  0.4280512669492133  0.1970424004081252   F   T   T
  0.2188721313940221  0.4283511161293603  0.3535712768662578   F   T   T
  0.1147241003833415  0.5716488838411303  0.6464287231595990   F   T   T
  0.0311098080788312  0.7500000176088264  0.5658601589470625   F   T   T
  0.3024864162848004  0.2500000000663931  0.4341398409926056   F   T   T
  0.1565134280650469  0.2500000000663931  0.1367381315870274   F   T   T
  0.1770828136667291  0.7500000176088264  0.8632618478391864   F   T   T
  0.0741839757202953  0.2500000000663931  0.0170966459219732   F   T   T
  0.2594122511423507  0.7500000176088264 -0.0170966305541277   F   T   T
  0.1134392529681918  0.7500000176088264  0.4426299232533589   F   T   T
  0.2201569788091788  0.2500000000663931  0.5573699945463114   F   T   T
 
  0.00000000E+00  0.00000000E+00  0.00000000E+00
  0.00000000E+00  0.00000000E+00  0.00000000E+00
  0.00000000E+00  0.00000000E+00  0.00000000E+00
  0.00000000E+00  0.00000000E+00  0.00000000E+00
  0.00000000E+00  0.00000000E+00  0.00000000E+00
  0.00000000E+00  0.00000000E+00  0.00000000E+00
  0.00000000E+00  0.00000000E+00  0.00000000E+00
  0.00000000E+00  0.00000000E+00  0.00000000E+00
  0.00000000E+00  0.00000000E+00  0.00000000E+00
  0.00000000E+00  0.00000000E+00  0.00000000E+00
  0.00000000E+00  0.00000000E+00  0.00000000E+00
  0.00000000E+00  0.00000000E+00  0.00000000E+00
  0.00000000E+00  0.00000000E+00  0.00000000E+00
  0.00000000E+00  0.00000000E+00  0.00000000E+00
  0.00000000E+00  0.00000000E+00  0.00000000E+00
  0.00000000E+00  0.00000000E+00  0.00000000E+00
  0.00000000E+00  0.00000000E+00  0.00000000E+00
  0.00000000E+00  0.00000000E+00  0.00000000E+00
  0.00000000E+00  0.00000000E+00  0.00000000E+00
  0.00000000E+00  0.00000000E+00  0.00000000E+00
  0.00000000E+00  0.00000000E+00  0.00000000E+00
  0.00000000E+00  0.00000000E+00  0.00000000E+00
  0.00000000E+00  0.00000000E+00  0.00000000E+00
  0.00000000E+00  0.00000000E+00  0.00000000E+00
