ba8 si16                                
   1.00000000000000     
    24.0094680786000012    0.0000000000000000    0.0000000000000000
     0.0000000000000000    6.7778496741999996    0.0000000000000000
     0.0000000000000000    0.0000000000000000   11.6021432877000006
   Ba   Si
     8    16
Selective dynamics
Direct
  0.0056936146836932  0.2500000000663931  0.7050962042174675   F   T   T
  0.3570577832018316  0.7500000176088264  0.2949037958083894   F   T   T
  0.1819296202106742  0.7500000176088264  0.1881231588069803   F   T   T
  0.1808217764253399  0.2500000000663931  0.8118768206192336   F   T   T
  0.0597801408303269  0.7500000176088264  0.9220170792975795   F   T   T
  0.3029712558473392  0.2500000000663931  0.0779829001286345   F   T   T
  0.1278430928145298  0.2500000000663931  0.4039526973806772   F   T   T
  0.2349083038214843  0.7500000176088264  0.5960473437582693   F   T   T
  0.0728991332615152  0.0718364545627247  0.1526501878242540   F   T   T
  0.2898522634161509  0.9281635365553990  0.8473497916881561   F   T   T
  0.1147241003833415  0.9275678749050833  0.6537741208763601   F   T   T
  0.2480272962526726  0.0724321162130399  0.3462258791494969   F   T   T
  0.2898522634161509  0.5718364634003342  0.8473497916881561   F   T   T
  0.0728991332615152  0.4281635365701565  0.1526501878242540   F   T   T
  0.2480272962526726  0.4275678749198417  0.3462258791494969   F   T   T
  0.1147241003833415  0.5724321250506499  0.6537741208763601   F   T   T
  0.0311098080788312  0.7500000176088264  0.5943436088909649   F   T   T
  0.3316415811434439  0.2500000000663931  0.4056563910487027   F   T   T
  0.1565134280650469  0.2500000000663931  0.0926707332192570   F   T   T
  0.2062379785253725  0.7500000176088264  0.9073292462069569   F   T   T
  0.0741839757202953  0.2500000000663931  0.9714358788500546   F   T   T
  0.2885674160009941  0.7500000176088264  0.0285641365177914   F   T   T
  0.1134392529681918  0.7500000176088264  0.4712014393432902   F   T   T
  0.2493121436678223  0.2500000000663931  0.5287984784563796   F   T   T
 
  0.00000000E+00  0.00000000E+00  0.00000000E+00
  0.00000000E+00  0.00000000E+00  0.00000000E+00
  0.00000000E+00  0.00000000E+00  0.00000000E+00
  0.00000000E+00  0.00000000E+00  0.00000000E+00
  0.00000000E+00  0.00000000E+00  0.00000000E+00
  0.00000000E+00  0.00000000E+00  0.00000000E+00
  0.00000000E+00  0.00000000E+00  0.00000000E+00
  0.00000000E+00  0.00000000E+00  0.00000000E+00
  0.00000000E+00  0.00000000E+00  0.00000000E+00
  0.00000000E+00  0.00000000E+00  0.00000000E+00
  0.00000000E+00  0.00000000E+00  0.00000000E+00
  0.00000000E+00  0.00000000E+00  0.00000000E+00
  0.00000000E+00  0.00000000E+00  0.00000000E+00
  0.00000000E+00  0.00000000E+00  0.00000000E+00
  0.00000000E+00  0.00000000E+00  0.00000000E+00
  0.00000000E+00  0.00000000E+00  0.00000000E+00
  0.00000000E+00  0.00000000E+00  0.00000000E+00
  0.00000000E+00  0.00000000E+00  0.00000000E+00
  0.00000000E+00  0.00000000E+00  0.00000000E+00
  0.00000000E+00  0.00000000E+00  0.00000000E+00
  0.00000000E+00  0.00000000E+00  0.00000000E+00
  0.00000000E+00  0.00000000E+00  0.00000000E+00
  0.00000000E+00  0.00000000E+00  0.00000000E+00
  0.00000000E+00  0.00000000E+00  0.00000000E+00
