ba8 si16                                
   1.00000000000000     
    24.0094680786000012    0.0000000000000000    0.0000000000000000
     0.0000000000000000    6.7778496741999996    0.0000000000000000
     0.0000000000000000    0.0000000000000000   11.6021432877000006
   Ba   Si
     8    16
Selective dynamics
Direct
  0.0056936146836932  0.2500000000663931  0.6936816209314113   F   T   T
  0.3403976889968874  0.7500000176088264  0.3063183790944453   F   T   T
  0.1819296202106742  0.7500000176088264  0.1875842406235406   F   T   T
  0.1641616822204028  0.2500000000663931  0.8124157388026735   F   T   T
  0.0597801408303269  0.7500000176088264  0.9324121476013324   F   T   T
  0.2863111616423950  0.2500000000663931  0.0675878318248816   F   T   T
  0.1278430928145298  0.2500000000663931  0.4149640372754703   F   T   T
  0.2182482096165401  0.7500000176088264  0.5850360038634755   F   T   T
  0.0728991332615152  0.0718249837437711  0.1685575573337526   F   T   T
  0.2731921692112067  0.9281750073743524  0.8314424221786573   F   T   T
  0.1147241003833415  0.9275020590474807  0.6480937314143244   F   T   T
  0.2313672020477284  0.0724979320706428  0.3519062686115323   F   T   T
  0.2731921692112067  0.5718249925813808  0.8314424221786573   F   T   T
  0.0728991332615152  0.4281750073891101  0.1685575573337526   F   T   T
  0.2313672020477284  0.4275020590622386  0.3519062686115323   F   T   T
  0.1147241003833415  0.5724979409082525  0.6480937314143244   F   T   T
  0.0311098080788312  0.7500000176088264  0.5855295455629663   F   T   T
  0.3149814869385068  0.2500000000663931  0.4144704543767015   F   T   T
  0.1565134280650469  0.2500000000663931  0.1054752643621999   F   T   T
  0.1895778843204354  0.7500000176088264  0.8945247150640142   F   T   T
  0.0741839757202953  0.2500000000663931  0.9891085150467831   F   T   T
  0.2719073217960570  0.7500000176088264  0.0108915003210620   F   T   T
  0.1134392529681918  0.7500000176088264  0.4623961370501652   F   T   T
  0.2326520494628852  0.2500000000663931  0.5376037807495052   F   T   T
 
  0.00000000E+00  0.00000000E+00  0.00000000E+00
  0.00000000E+00  0.00000000E+00  0.00000000E+00
  0.00000000E+00  0.00000000E+00  0.00000000E+00
  0.00000000E+00  0.00000000E+00  0.00000000E+00
  0.00000000E+00  0.00000000E+00  0.00000000E+00
  0.00000000E+00  0.00000000E+00  0.00000000E+00
  0.00000000E+00  0.00000000E+00  0.00000000E+00
  0.00000000E+00  0.00000000E+00  0.00000000E+00
  0.00000000E+00  0.00000000E+00  0.00000000E+00
  0.00000000E+00  0.00000000E+00  0.00000000E+00
  0.00000000E+00  0.00000000E+00  0.00000000E+00
  0.00000000E+00  0.00000000E+00  0.00000000E+00
  0.00000000E+00  0.00000000E+00  0.00000000E+00
  0.00000000E+00  0.00000000E+00  0.00000000E+00
  0.00000000E+00  0.00000000E+00  0.00000000E+00
  0.00000000E+00  0.00000000E+00  0.00000000E+00
  0.00000000E+00  0.00000000E+00  0.00000000E+00
  0.00000000E+00  0.00000000E+00  0.00000000E+00
  0.00000000E+00  0.00000000E+00  0.00000000E+00
  0.00000000E+00  0.00000000E+00  0.00000000E+00
  0.00000000E+00  0.00000000E+00  0.00000000E+00
  0.00000000E+00  0.00000000E+00  0.00000000E+00
  0.00000000E+00  0.00000000E+00  0.00000000E+00
  0.00000000E+00  0.00000000E+00  0.00000000E+00
