ba8 si16                                
   1.00000000000000     
    24.0094680786000012    0.0000000000000000    0.0000000000000000
     0.0000000000000000    6.7778496741999996    0.0000000000000000
     0.0000000000000000    0.0000000000000000   11.6021432877000006
   Ba   Si
     8    16
Selective dynamics
Direct
  0.0056936146836932  0.2500000000663931  0.6673620753536971   F   T   T
  0.3320676418944188  0.7500000176088264  0.3326379246721601   F   T   T
  0.1819296202106742  0.7500000176088264  0.1847846656791856   F   T   T
  0.1558316351179272  0.2500000000663931  0.8152153137470283   F   T   T
  0.0597801408303269  0.7500000176088264  0.9519149638652642   F   T   T
  0.2779811145399265  0.2500000000663931  0.0480850155609497   F   T   T
  0.1278430928145298  0.2500000000663931  0.4270770515676482   F   T   T
  0.2099181625140716  0.7500000176088264  0.5729229895712983   F   T   T
  0.0728991332615152  0.0720206397549023  0.1854610060966845   F   T   T
  0.2648621221087382  0.9279793513632214  0.8145389734157253   F   T   T
  0.1147241003833415  0.9282472731287087  0.6458289320495473   F   T   T
  0.2230371549452599  0.0717527179894148  0.3541710679763098   F   T   T
  0.2648621221087382  0.5720206485925118  0.8145389734157253   F   T   T
  0.0728991332615152  0.4279793513779791  0.1854610060966845   F   T   T
  0.2230371549452599  0.4282472731434666  0.3541710679763098   F   T   T
  0.1147241003833415  0.5717527268270245  0.6458289320495473   F   T   T
  0.0311098080788312  0.7500000176088264  0.5753397621739950   F   T   T
  0.3066514398360312  0.2500000000663931  0.4246602377656730   F   T   T
  0.1565134280650469  0.2500000000663931  0.1228501338039506   F   T   T
  0.1812478372179669  0.7500000176088264  0.8771498456222628   F   T   T
  0.0741839757202953  0.2500000000663931  0.0060629723990399   F   T   T
  0.2635772746935814  0.7500000176088264 -0.0060629570311944   F   T   T
  0.1134392529681918  0.7500000176088264  0.4524655461648849   F   T   T
  0.2243220023604167  0.2500000000663931  0.5475343716347854   F   T   T
 
  0.00000000E+00  0.00000000E+00  0.00000000E+00
  0.00000000E+00  0.00000000E+00  0.00000000E+00
  0.00000000E+00  0.00000000E+00  0.00000000E+00
  0.00000000E+00  0.00000000E+00  0.00000000E+00
  0.00000000E+00  0.00000000E+00  0.00000000E+00
  0.00000000E+00  0.00000000E+00  0.00000000E+00
  0.00000000E+00  0.00000000E+00  0.00000000E+00
  0.00000000E+00  0.00000000E+00  0.00000000E+00
  0.00000000E+00  0.00000000E+00  0.00000000E+00
  0.00000000E+00  0.00000000E+00  0.00000000E+00
  0.00000000E+00  0.00000000E+00  0.00000000E+00
  0.00000000E+00  0.00000000E+00  0.00000000E+00
  0.00000000E+00  0.00000000E+00  0.00000000E+00
  0.00000000E+00  0.00000000E+00  0.00000000E+00
  0.00000000E+00  0.00000000E+00  0.00000000E+00
  0.00000000E+00  0.00000000E+00  0.00000000E+00
  0.00000000E+00  0.00000000E+00  0.00000000E+00
  0.00000000E+00  0.00000000E+00  0.00000000E+00
  0.00000000E+00  0.00000000E+00  0.00000000E+00
  0.00000000E+00  0.00000000E+00  0.00000000E+00
  0.00000000E+00  0.00000000E+00  0.00000000E+00
  0.00000000E+00  0.00000000E+00  0.00000000E+00
  0.00000000E+00  0.00000000E+00  0.00000000E+00
  0.00000000E+00  0.00000000E+00  0.00000000E+00
