ba8 si16                                
   1.00000000000000     
    24.0094680786000012    0.0000000000000000    0.0000000000000000
     0.0000000000000000    6.7778496741999996    0.0000000000000000
     0.0000000000000000    0.0000000000000000   11.6021432877000006
   Ba   Si
     8    16
Selective dynamics
Direct
  0.0056936146836932  0.2500000000663931  0.7056559023746676   F   T   T
  0.3612228067530623  0.7500000176088264  0.2943440976511887   F   T   T
  0.1819296202106742  0.7500000176088264  0.1880068135011421   F   T   T
  0.1849867999765777  0.2500000000663931  0.8119931659250712   F   T   T
  0.0597801408303269  0.7500000176088264  0.9206232052514661   F   T   T
  0.3071362793985699  0.2500000000663931  0.0793767741747475   F   T   T
  0.1278430928145298  0.2500000000663931  0.4019040562377565   F   T   T
  0.2390733273727221  0.7500000176088264  0.5980959849011899   F   T   T
  0.0728991332615152  0.0718879354162117  0.1499638894640666   F   T   T
  0.2940172869673816  0.9281120557019119  0.8500360900483436   F   T   T
  0.1147241003833415  0.9279027768224160  0.6550059552931135   F   T   T
  0.2521923198039104  0.0720972142957074  0.3449940447327430   F   T   T
  0.2940172869673816  0.5718879442538213  0.8500360900483436   F   T   T
  0.0728991332615152  0.4281120557166696  0.1499638894640666   F   T   T
  0.2521923198039104  0.4279027768371739  0.3449940447327430   F   T   T
  0.1147241003833415  0.5720972231333172  0.6550059552931135   F   T   T
  0.0311098080788312  0.7500000176088264  0.5961288309497792   F   T   T
  0.3358066046946817  0.2500000000663931  0.4038711689898885   F   T   T
  0.1565134280650469  0.2500000000663931  0.0903281438574506   F   T   T
  0.2104030020766103  0.7500000176088264  0.9096718355687636   F   T   T
  0.0741839757202953  0.2500000000663931  0.9682980280503783   F   T   T
  0.2927324395522319  0.7500000176088264  0.0317019873174672   F   T   T
  0.1134392529681918  0.7500000176088264  0.4725952606767693   F   T   T
  0.2534771672190601  0.2500000000663931  0.5274046571229001   F   T   T
 
  0.00000000E+00  0.00000000E+00  0.00000000E+00
  0.00000000E+00  0.00000000E+00  0.00000000E+00
  0.00000000E+00  0.00000000E+00  0.00000000E+00
  0.00000000E+00  0.00000000E+00  0.00000000E+00
  0.00000000E+00  0.00000000E+00  0.00000000E+00
  0.00000000E+00  0.00000000E+00  0.00000000E+00
  0.00000000E+00  0.00000000E+00  0.00000000E+00
  0.00000000E+00  0.00000000E+00  0.00000000E+00
  0.00000000E+00  0.00000000E+00  0.00000000E+00
  0.00000000E+00  0.00000000E+00  0.00000000E+00
  0.00000000E+00  0.00000000E+00  0.00000000E+00
  0.00000000E+00  0.00000000E+00  0.00000000E+00
  0.00000000E+00  0.00000000E+00  0.00000000E+00
  0.00000000E+00  0.00000000E+00  0.00000000E+00
  0.00000000E+00  0.00000000E+00  0.00000000E+00
  0.00000000E+00  0.00000000E+00  0.00000000E+00
  0.00000000E+00  0.00000000E+00  0.00000000E+00
  0.00000000E+00  0.00000000E+00  0.00000000E+00
  0.00000000E+00  0.00000000E+00  0.00000000E+00
  0.00000000E+00  0.00000000E+00  0.00000000E+00
  0.00000000E+00  0.00000000E+00  0.00000000E+00
  0.00000000E+00  0.00000000E+00  0.00000000E+00
  0.00000000E+00  0.00000000E+00  0.00000000E+00
  0.00000000E+00  0.00000000E+00  0.00000000E+00
