ba8 si16                                
   1.00000000000000     
    24.0094680786000012    0.0000000000000000    0.0000000000000000
     0.0000000000000000    6.7778496741999996    0.0000000000000000
     0.0000000000000000    0.0000000000000000   11.6021432877000006
   Ba   Si
     8    16
Selective dynamics
Direct
  0.0056936146836932  0.2500000000663931  0.7020785117799118   F   T   T
  0.3487277360993559  0.7500000176088264  0.2979214882459449   F   T   T
  0.1819296202106742  0.7500000176088264  0.1883487855052951   F   T   T
  0.1724917293228714  0.2500000000663931  0.8116511939209188   F   T   T
  0.0597801408303269  0.7500000176088264  0.9255815860033419   F   T   T
  0.2946412087448635  0.2500000000663931  0.0744183934228714   F   T   T
  0.1278430928145298  0.2500000000663931  0.4080661738221530   F   T   T
  0.2265782567190158  0.7500000176088264  0.5919338673167939   F   T   T
  0.0728991332615152  0.0717595985651175  0.1590177107855065   F   T   T
  0.2815222163136823  0.9282403925530062  0.8409822687269033   F   T   T
  0.1147241003833415  0.9272675928829681  0.6505432165982271   F   T   T
  0.2396972491502041  0.0727323982351548  0.3494567834276300   F   T   T
  0.2815222163136823  0.5717596074027270  0.8409822687269033   F   T   T
  0.0728991332615152  0.4282403925677638  0.1590177107855065   F   T   T
  0.2396972491502041  0.4272675928977266  0.3494567834276300   F   T   T
  0.1147241003833415  0.5727324070727651  0.6505432165982271   F   T   T
  0.0311098080788312  0.7500000176088264  0.5903111403250959   F   T   T
  0.3233115340409753  0.2500000000663931  0.4096888596145715   F   T   T
  0.1565134280650469  0.2500000000663931  0.0979919895375581   F   T   T
  0.1979079314229040  0.7500000176088264  0.9020079898886557   F   T   T
  0.0741839757202953  0.2500000000663931  0.9786364049480035   F   T   T
  0.2802373688985256  0.7500000176088264  0.0213636104198420   F   T   T
  0.1134392529681918  0.7500000176088264  0.4672292918141472   F   T   T
  0.2409820965653537  0.2500000000663931  0.5327706259855228   F   T   T
 
  0.00000000E+00  0.00000000E+00  0.00000000E+00
  0.00000000E+00  0.00000000E+00  0.00000000E+00
  0.00000000E+00  0.00000000E+00  0.00000000E+00
  0.00000000E+00  0.00000000E+00  0.00000000E+00
  0.00000000E+00  0.00000000E+00  0.00000000E+00
  0.00000000E+00  0.00000000E+00  0.00000000E+00
  0.00000000E+00  0.00000000E+00  0.00000000E+00
  0.00000000E+00  0.00000000E+00  0.00000000E+00
  0.00000000E+00  0.00000000E+00  0.00000000E+00
  0.00000000E+00  0.00000000E+00  0.00000000E+00
  0.00000000E+00  0.00000000E+00  0.00000000E+00
  0.00000000E+00  0.00000000E+00  0.00000000E+00
  0.00000000E+00  0.00000000E+00  0.00000000E+00
  0.00000000E+00  0.00000000E+00  0.00000000E+00
  0.00000000E+00  0.00000000E+00  0.00000000E+00
  0.00000000E+00  0.00000000E+00  0.00000000E+00
  0.00000000E+00  0.00000000E+00  0.00000000E+00
  0.00000000E+00  0.00000000E+00  0.00000000E+00
  0.00000000E+00  0.00000000E+00  0.00000000E+00
  0.00000000E+00  0.00000000E+00  0.00000000E+00
  0.00000000E+00  0.00000000E+00  0.00000000E+00
  0.00000000E+00  0.00000000E+00  0.00000000E+00
  0.00000000E+00  0.00000000E+00  0.00000000E+00
  0.00000000E+00  0.00000000E+00  0.00000000E+00
