ba8 si16                                
   1.00000000000000     
    24.0094680786000012    0.0000000000000000    0.0000000000000000
     0.0000000000000000    6.7778496741999996    0.0000000000000000
     0.0000000000000000    0.0000000000000000   11.6021432877000006
   Ba   Si
     8    16
Selective dynamics
Direct
  0.0056936146836932  0.2500000000663931  0.7056708042877757   F   T   T
  0.3653878303043001  0.7500000176088264  0.2943291957380809   F   T   T
  0.1819296202106742  0.7500000176088264  0.1877652544864012   F   T   T
  0.1891518235278156  0.2500000000663931  0.8122347249398125   F   T   T
  0.0597801408303269  0.7500000176088264  0.9194182140651030   F   T   T
  0.3113013029498077  0.2500000000663931  0.0805817653611103   F   T   T
  0.1278430928145298  0.2500000000663931  0.4004995219412381   F   T   T
  0.2432383509239529  0.7500000176088264  0.5995005191977083   F   T   T
  0.0728991332615152  0.0719663549158579  0.1479667127972584   F   T   T
  0.2981823105186194  0.9280336362022658  0.8520332667151514   F   T   T
  0.1147241003833415  0.9282614661652487  0.6564757176690219   F   T   T
  0.2563573433551412  0.0717385249528743  0.3435242823568345   F   T   T
  0.2981823105186194  0.5719663637534674  0.8520332667151514   F   T   T
  0.0728991332615152  0.4280336362170233  0.1479667127972584   F   T   T
  0.2563573433551412  0.4282614661800073  0.3435242823568345   F   T   T
  0.1147241003833415  0.5717385337904844  0.6564757176690219   F   T   T
  0.0311098080788312  0.7500000176088264  0.5974729613591075   F   T   T
  0.3399716282459195  0.2500000000663931  0.4025270385805608   F   T   T
  0.1565134280650469  0.2500000000663931  0.0880672704455447   F   T   T
  0.2145680256278482  0.7500000176088264  0.9119327089806686   F   T   T
  0.0741839757202953  0.2500000000663931  0.9658879937832091   F   T   T
  0.2968974631034698  0.7500000176088264  0.0341120215846367   F   T   T
  0.1134392529681918  0.7500000176088264  0.4741339516015077   F   T   T
  0.2576421907702979  0.2500000000663931  0.5258659661981623   F   T   T
 
  0.00000000E+00  0.00000000E+00  0.00000000E+00
  0.00000000E+00  0.00000000E+00  0.00000000E+00
  0.00000000E+00  0.00000000E+00  0.00000000E+00
  0.00000000E+00  0.00000000E+00  0.00000000E+00
  0.00000000E+00  0.00000000E+00  0.00000000E+00
  0.00000000E+00  0.00000000E+00  0.00000000E+00
  0.00000000E+00  0.00000000E+00  0.00000000E+00
  0.00000000E+00  0.00000000E+00  0.00000000E+00
  0.00000000E+00  0.00000000E+00  0.00000000E+00
  0.00000000E+00  0.00000000E+00  0.00000000E+00
  0.00000000E+00  0.00000000E+00  0.00000000E+00
  0.00000000E+00  0.00000000E+00  0.00000000E+00
  0.00000000E+00  0.00000000E+00  0.00000000E+00
  0.00000000E+00  0.00000000E+00  0.00000000E+00
  0.00000000E+00  0.00000000E+00  0.00000000E+00
  0.00000000E+00  0.00000000E+00  0.00000000E+00
  0.00000000E+00  0.00000000E+00  0.00000000E+00
  0.00000000E+00  0.00000000E+00  0.00000000E+00
  0.00000000E+00  0.00000000E+00  0.00000000E+00
  0.00000000E+00  0.00000000E+00  0.00000000E+00
  0.00000000E+00  0.00000000E+00  0.00000000E+00
  0.00000000E+00  0.00000000E+00  0.00000000E+00
  0.00000000E+00  0.00000000E+00  0.00000000E+00
  0.00000000E+00  0.00000000E+00  0.00000000E+00
