ba8 si16                                
   1.00000000000000     
    24.0094680786000012    0.0000000000000000    0.0000000000000000
     0.0000000000000000    6.7778496741999996    0.0000000000000000
     0.0000000000000000    0.0000000000000000   11.6021432877000006
   Ba   Si
     8    16
Selective dynamics
Direct
  0.0056936146836932  0.2500000000663931  0.6856109446726439   F   T   T
  0.3362326654456496  0.7500000176088264  0.3143890553532125   F   T   T
  0.1819296202106742  0.7500000176088264  0.1859180890812463   F   T   T
  0.1599966586691650  0.2500000000663931  0.8140818903449679   F   T   T
  0.0597801408303269  0.7500000176088264  0.9404765448412777   F   T   T
  0.2821461380911643  0.2500000000663931  0.0595234345849365   F   T   T
  0.1278430928145298  0.2500000000663931  0.4207787721582495   F   T   T
  0.2140831860653094  0.7500000176088264  0.5792212689806971   F   T   T
  0.0728991332615152  0.0719916078153928  0.1766593472568957   F   T   T
  0.2690271456599760  0.9280083833027303  0.8233406322555138   F   T   T
  0.1147241003833415  0.9277334974793616  0.6477823772963794   F   T   T
  0.2272021784964977  0.0722664936387620  0.3522176227294773   F   T   T
  0.2690271456599760  0.5719916166530029  0.8233406322555138   F   T   T
  0.0728991332615152  0.4280083833174885  0.1766593472568957   F   T   T
  0.2272021784964977  0.4277334974941193  0.3522176227294773   F   T   T
  0.1147241003833415  0.5722665024763716  0.6477823772963794   F   T   T
  0.0311098080788312  0.7500000176088264  0.5825990008800173   F   T   T
  0.3108164633872690  0.2500000000663931  0.4174009990596504   F   T   T
  0.1565134280650469  0.2500000000663931  0.1134041796712993   F   T   T
  0.1854128607691976  0.7500000176088264  0.8865957997549141   F   T   T
  0.0741839757202953  0.2500000000663931  0.9971416974245382   F   T   T
  0.2677422982448192  0.7500000176088264  0.0028583179433070   F   T   T
  0.1134392529681918  0.7500000176088264  0.4594588907049986   F   T   T
  0.2284870259116474  0.2500000000663931  0.5405410270946709   F   T   T
 
  0.00000000E+00  0.00000000E+00  0.00000000E+00
  0.00000000E+00  0.00000000E+00  0.00000000E+00
  0.00000000E+00  0.00000000E+00  0.00000000E+00
  0.00000000E+00  0.00000000E+00  0.00000000E+00
  0.00000000E+00  0.00000000E+00  0.00000000E+00
  0.00000000E+00  0.00000000E+00  0.00000000E+00
  0.00000000E+00  0.00000000E+00  0.00000000E+00
  0.00000000E+00  0.00000000E+00  0.00000000E+00
  0.00000000E+00  0.00000000E+00  0.00000000E+00
  0.00000000E+00  0.00000000E+00  0.00000000E+00
  0.00000000E+00  0.00000000E+00  0.00000000E+00
  0.00000000E+00  0.00000000E+00  0.00000000E+00
  0.00000000E+00  0.00000000E+00  0.00000000E+00
  0.00000000E+00  0.00000000E+00  0.00000000E+00
  0.00000000E+00  0.00000000E+00  0.00000000E+00
  0.00000000E+00  0.00000000E+00  0.00000000E+00
  0.00000000E+00  0.00000000E+00  0.00000000E+00
  0.00000000E+00  0.00000000E+00  0.00000000E+00
  0.00000000E+00  0.00000000E+00  0.00000000E+00
  0.00000000E+00  0.00000000E+00  0.00000000E+00
  0.00000000E+00  0.00000000E+00  0.00000000E+00
  0.00000000E+00  0.00000000E+00  0.00000000E+00
  0.00000000E+00  0.00000000E+00  0.00000000E+00
  0.00000000E+00  0.00000000E+00  0.00000000E+00
