ba8 si16                                
   1.00000000000000     
    37.3501935982073050    0.0000000000000000    0.0000000000000000
     0.0000000000000000    6.6598056759207234    0.0000000000000000
     0.0000000000000000    0.0000000000000000   11.4090283472576104
   Ba   Si
    20    40
Direct
  0.0084433697318416  0.2500000000663931  0.7001843876192256
  0.2442682223755728  0.2500000000663931  0.6897852379585747
  0.4869131893850808  0.2500000000663931  0.6922818484690388
  0.2362676663961144  0.7500000176088264  0.3092007173550644
  0.4759984407866419  0.7500000176088264  0.3089882827331187
  0.1133391588540503  0.7500000176088264  0.1922817867433743
  0.3559841258635653  0.7500000176088264  0.1897851762329102
  0.5918089793067848  0.7500000176088264  0.2001843258935610
  0.1242538566045874  0.2500000000663931  0.8089883238591401
  0.3639846818430167  0.2500000000663931  0.8092007584810859
  0.0515173960079916  0.7500000176088264  0.9121962961225263
  0.2788876280193987  0.7500000176088264  0.9050832311487710
  0.5170701757753468  0.7500000176088264  0.8957573020107162
  0.2006088381582565  0.2500000000663931  0.0930157726714817
  0.4413590161457443  0.2500000000663931  0.0953169333658684
  0.0831821978877422  0.2500000000663931  0.3957573842239709
  0.3213646948224410  0.2500000000663931  0.4050833133620262
  0.5487349268338407  0.2500000000663931  0.4121963783357814
  0.1588933066694429  0.7500000176088264  0.5953169128653456
  0.3996434973955552  0.7500000176088264  0.5930157521709595
  0.0430518295001478  0.0704251123434970  0.1466863121160540
  0.2856882171604944  0.0693676525818917  0.1457823525069068
  0.5257746373025963  0.0704969006989061  0.1415437347181289
  0.1951480239305037  0.9310431490066878  0.8535681373094017
  0.4343643579503574  0.9313695764493033  0.8525236954370339
  0.0744777236485206  0.9295030904192171  0.6415437552445079
  0.3145641310786438  0.9306323385362320  0.6457823730332855
  0.5572005060270117  0.9295748787746265  0.6466863326424326
  0.1658879775768017  0.0686304146688197  0.3525236954241024
  0.4051042989113359  0.0689568421114354  0.3535681372964699
  0.1951480239305037  0.5689568509490454  0.8535681373094017
  0.4343643579503574  0.5686304235064299  0.8525236954370339
  0.0430518295001478  0.4295748787893846  0.1466863121160540
  0.2856882171604944  0.4306323385509894  0.1457823525069068
  0.5257746373025963  0.4295030904339752  0.1415437347181289
  0.1658879775768017  0.4313695764640619  0.3525236954241024
  0.4051042989113359  0.4310431490214460  0.3535681372964699
  0.0744777236485206  0.5704969095365161  0.6415437552445079
  0.3145641310786438  0.5693676614195012  0.6457823730332855
  0.5572005060270117  0.5704251211811067  0.6466863326424326
  0.0179083180029920  0.7500000176088264  0.6173912748556991
  0.2606666609056444  0.7500000176088264  0.5920742900251444
  0.5024512197386252  0.7500000176088264  0.5828321556489114
  0.2194253258533405  0.2500000000663931  0.4078444368737392
  0.4584704469057194  0.2500000000663931  0.4086533691784490
  0.0978010776792565  0.2500000000663931  0.0828320940094354
  0.3395856873334867  0.2500000000663931  0.0920742283856688
  0.5823440254924708  0.2500000000663931  0.1173912132162236
  0.1417818505121623  0.7500000176088264  0.9086534103044703
  0.3808269715645409  0.7500000176088264  0.9078444779997606
  0.0433175707315194  0.2500000000663931  0.9630858856547291
  0.2868518064512174  0.2500000000663931  0.9633039304483294
  0.5380381721483382  0.2500000000663931  0.9605838627493435
  0.1933872330803485  0.7500000176088264  0.0370375579519750
  0.4335026706098947  0.7500000176088264  0.0355636690616132
  0.0622141633788212  0.7500000176088264  0.4605837805964206
  0.3134005418145661  0.7500000176088264  0.4633038482954069
  0.5569347870482612  0.7500000176088264  0.4630858035018066
  0.1667496903412155  0.2500000000663931  0.5355636536463602
  0.4068650897348388  0.2500000000663931  0.5370375425367219
 
  0.00000000E+00  0.00000000E+00  0.00000000E+00
  0.00000000E+00  0.00000000E+00  0.00000000E+00
  0.00000000E+00  0.00000000E+00  0.00000000E+00
  0.00000000E+00  0.00000000E+00  0.00000000E+00
  0.00000000E+00  0.00000000E+00  0.00000000E+00
  0.00000000E+00  0.00000000E+00  0.00000000E+00
  0.00000000E+00  0.00000000E+00  0.00000000E+00
  0.00000000E+00  0.00000000E+00  0.00000000E+00
  0.00000000E+00  0.00000000E+00  0.00000000E+00
  0.00000000E+00  0.00000000E+00  0.00000000E+00
  0.00000000E+00  0.00000000E+00  0.00000000E+00
  0.00000000E+00  0.00000000E+00  0.00000000E+00
  0.00000000E+00  0.00000000E+00  0.00000000E+00
  0.00000000E+00  0.00000000E+00  0.00000000E+00
  0.00000000E+00  0.00000000E+00  0.00000000E+00
  0.00000000E+00  0.00000000E+00  0.00000000E+00
  0.00000000E+00  0.00000000E+00  0.00000000E+00
  0.00000000E+00  0.00000000E+00  0.00000000E+00
  0.00000000E+00  0.00000000E+00  0.00000000E+00
  0.00000000E+00  0.00000000E+00  0.00000000E+00
  0.00000000E+00  0.00000000E+00  0.00000000E+00
  0.00000000E+00  0.00000000E+00  0.00000000E+00
  0.00000000E+00  0.00000000E+00  0.00000000E+00
  0.00000000E+00  0.00000000E+00  0.00000000E+00
  0.00000000E+00  0.00000000E+00  0.00000000E+00
  0.00000000E+00  0.00000000E+00  0.00000000E+00
  0.00000000E+00  0.00000000E+00  0.00000000E+00
  0.00000000E+00  0.00000000E+00  0.00000000E+00
  0.00000000E+00  0.00000000E+00  0.00000000E+00
  0.00000000E+00  0.00000000E+00  0.00000000E+00
  0.00000000E+00  0.00000000E+00  0.00000000E+00
  0.00000000E+00  0.00000000E+00  0.00000000E+00
  0.00000000E+00  0.00000000E+00  0.00000000E+00
  0.00000000E+00  0.00000000E+00  0.00000000E+00
  0.00000000E+00  0.00000000E+00  0.00000000E+00
  0.00000000E+00  0.00000000E+00  0.00000000E+00
  0.00000000E+00  0.00000000E+00  0.00000000E+00
  0.00000000E+00  0.00000000E+00  0.00000000E+00
  0.00000000E+00  0.00000000E+00  0.00000000E+00
  0.00000000E+00  0.00000000E+00  0.00000000E+00
  0.00000000E+00  0.00000000E+00  0.00000000E+00
  0.00000000E+00  0.00000000E+00  0.00000000E+00
  0.00000000E+00  0.00000000E+00  0.00000000E+00
  0.00000000E+00  0.00000000E+00  0.00000000E+00
  0.00000000E+00  0.00000000E+00  0.00000000E+00
  0.00000000E+00  0.00000000E+00  0.00000000E+00
  0.00000000E+00  0.00000000E+00  0.00000000E+00
  0.00000000E+00  0.00000000E+00  0.00000000E+00
  0.00000000E+00  0.00000000E+00  0.00000000E+00
  0.00000000E+00  0.00000000E+00  0.00000000E+00
  0.00000000E+00  0.00000000E+00  0.00000000E+00
  0.00000000E+00  0.00000000E+00  0.00000000E+00
  0.00000000E+00  0.00000000E+00  0.00000000E+00
  0.00000000E+00  0.00000000E+00  0.00000000E+00
  0.00000000E+00  0.00000000E+00  0.00000000E+00
  0.00000000E+00  0.00000000E+00  0.00000000E+00
  0.00000000E+00  0.00000000E+00  0.00000000E+00
  0.00000000E+00  0.00000000E+00  0.00000000E+00
  0.00000000E+00  0.00000000E+00  0.00000000E+00
  0.00000000E+00  0.00000000E+00  0.00000000E+00
