ba8 si16                                
   1.00000000000000     
    32.9048442164771870    0.0000000000000000   -0.0311180929734854
     0.0000000000000000    6.6431252205652394    0.0000000000000000
    -0.0121259547727507    0.0000000000000000   11.3866297868386184
   Ba   Si
    16    32
Direct
  0.0093844913472125  0.2500000000663931  0.6980742253656959
  0.5363307629303192  0.7500000176088264  0.3019257746601609
  0.1287964226554673  0.7500000176088264  0.1911871918310866
  0.1413663146926172  0.2500000000663931  0.8084409810878507
  0.2776605407683524  0.2500000000663931  0.6897361606277269
  0.2680546837080934  0.7500000176088264  0.3102638393981300
  0.4043489097838358  0.7500000176088264  0.1915589983383624
  0.4169188018209858  0.2500000000663931  0.8088127875951269
  0.0590577082815099  0.7500000176088264  0.9106860055747781
  0.4866575161949429  0.2500000000663931  0.0893139738514360
  0.0943301043801429  0.2500000000663931  0.3944715675867159
  0.1803440680019873  0.7500000176088264  0.5957573536349454
  0.3181922769377784  0.7500000176088264  0.9069659047386586
  0.2275229475689578  0.2500000000663931  0.0930340746875553
  0.3653711564744588  0.2500000000663931  0.4042426875040011
  0.4513851200963028  0.7500000176088264  0.6055284735522303
  0.0487257648053335  0.0699860362546917  0.1451170617264232
  0.4969894741173768  0.9300139548634316  0.8548829177859868
  0.0846334639727508  0.9301226862104264  0.6403626844750760
  0.1881303155706422  0.0682498358305106  0.3528803116126165
  0.4969894741173768  0.5699860450923016  0.8548829177859868
  0.0487257648053335  0.4300139548781896  0.1451170617264232
  0.1881303155706422  0.4317501553023708  0.3528803116126165
  0.0846334639727508  0.5698773137453068  0.6403626844750760
  0.3233764454189110  0.0687018531430684  0.1462256361000552
  0.2223387935037923  0.9312981379750549  0.8537743434123541
  0.3575848944595532  0.9317501552876130  0.6471196884132405
  0.4610817749499526  0.0698773049076966  0.3596373155507807
  0.2223387935037923  0.5687018619806783  0.8537743434123541
  0.3233764454189110  0.4312981379898130  0.1462256361000552
  0.4610817749499526  0.4301226862251851  0.3596373155507807
  0.3575848944595532  0.5682498446681202  0.6471196884132405
  0.0204586279113593  0.7500000176088264  0.6155802754763617
  0.5252565622817335  0.2500000000663931  0.3844197244633059
  0.1108058945798473  0.2500000000663931  0.0816896155811640
  0.1615919167160872  0.7500000176088264  0.9077191019565688
  0.2967010915345981  0.7500000176088264  0.5925016548404695
  0.2490141329418548  0.2500000000663931  0.4074983450991990
  0.3841233077906492  0.2500000000663931  0.0922808774696449
  0.4349093371045858  0.7500000176088264  0.9183103638450500
  0.0490435967961936  0.2500000000663931  0.9612447565615267
  0.4966716096300083  0.7500000176088264  0.0387552588063188
  0.0708403390450499  0.7500000176088264  0.4590303398038952
  0.1893817997228949  0.2500000000663931  0.5360444993160869
  0.3257230005433913  0.2500000000663931  0.9626412418973073
  0.2199922384096024  0.7500000176088264  0.0373587734705384
  0.3563334103073004  0.7500000176088264  0.4639554184835830
  0.4748748998776606  0.2500000000663931  0.5409695779957744
 
  0.00000000E+00  0.00000000E+00  0.00000000E+00
  0.00000000E+00  0.00000000E+00  0.00000000E+00
  0.00000000E+00  0.00000000E+00  0.00000000E+00
  0.00000000E+00  0.00000000E+00  0.00000000E+00
  0.00000000E+00  0.00000000E+00  0.00000000E+00
  0.00000000E+00  0.00000000E+00  0.00000000E+00
  0.00000000E+00  0.00000000E+00  0.00000000E+00
  0.00000000E+00  0.00000000E+00  0.00000000E+00
  0.00000000E+00  0.00000000E+00  0.00000000E+00
  0.00000000E+00  0.00000000E+00  0.00000000E+00
  0.00000000E+00  0.00000000E+00  0.00000000E+00
  0.00000000E+00  0.00000000E+00  0.00000000E+00
  0.00000000E+00  0.00000000E+00  0.00000000E+00
  0.00000000E+00  0.00000000E+00  0.00000000E+00
  0.00000000E+00  0.00000000E+00  0.00000000E+00
  0.00000000E+00  0.00000000E+00  0.00000000E+00
  0.00000000E+00  0.00000000E+00  0.00000000E+00
  0.00000000E+00  0.00000000E+00  0.00000000E+00
  0.00000000E+00  0.00000000E+00  0.00000000E+00
  0.00000000E+00  0.00000000E+00  0.00000000E+00
  0.00000000E+00  0.00000000E+00  0.00000000E+00
  0.00000000E+00  0.00000000E+00  0.00000000E+00
  0.00000000E+00  0.00000000E+00  0.00000000E+00
  0.00000000E+00  0.00000000E+00  0.00000000E+00
  0.00000000E+00  0.00000000E+00  0.00000000E+00
  0.00000000E+00  0.00000000E+00  0.00000000E+00
  0.00000000E+00  0.00000000E+00  0.00000000E+00
  0.00000000E+00  0.00000000E+00  0.00000000E+00
  0.00000000E+00  0.00000000E+00  0.00000000E+00
  0.00000000E+00  0.00000000E+00  0.00000000E+00
  0.00000000E+00  0.00000000E+00  0.00000000E+00
  0.00000000E+00  0.00000000E+00  0.00000000E+00
  0.00000000E+00  0.00000000E+00  0.00000000E+00
  0.00000000E+00  0.00000000E+00  0.00000000E+00
  0.00000000E+00  0.00000000E+00  0.00000000E+00
  0.00000000E+00  0.00000000E+00  0.00000000E+00
  0.00000000E+00  0.00000000E+00  0.00000000E+00
  0.00000000E+00  0.00000000E+00  0.00000000E+00
  0.00000000E+00  0.00000000E+00  0.00000000E+00
  0.00000000E+00  0.00000000E+00  0.00000000E+00
  0.00000000E+00  0.00000000E+00  0.00000000E+00
  0.00000000E+00  0.00000000E+00  0.00000000E+00
  0.00000000E+00  0.00000000E+00  0.00000000E+00
  0.00000000E+00  0.00000000E+00  0.00000000E+00
  0.00000000E+00  0.00000000E+00  0.00000000E+00
  0.00000000E+00  0.00000000E+00  0.00000000E+00
  0.00000000E+00  0.00000000E+00  0.00000000E+00
  0.00000000E+00  0.00000000E+00  0.00000000E+00
