ba8 ge16                                
   1.00000000000000     
     9.1371886532291651   -0.0000000000000000    0.0000000000000000
     0.0000000000000000    6.8280040724469284    0.0000000000000000
     0.0000000000000000    0.0000000000000000   11.6324963101719376
   Ba   Ge
     8    16
Direct
  0.0156270130239433  0.2500000000663931  0.6908924951949373
  0.9843729902392879  0.7500000176088264  0.3091075048309191
  0.4843729902725842  0.7500000176088264  0.1908924334692730
  0.5156270096608169  0.2500000000663931  0.8091075459569410
  0.1555746994294981  0.7500000176088264  0.9066327288262991
  0.8444253006149038  0.2500000000663931  0.0933672505999148
  0.3444253005372059  0.2500000000663931  0.4066328110395539
  0.6555746993961948  0.7500000176088264  0.5933672300993925
  0.1907459104622235  0.0611081243583902  0.1494578435704922
  0.8092540895821710  0.9388918667597334  0.8505421359419176
  0.3092540895044734  0.9388918667597334  0.6494578640968709
  0.6907459104289276  0.0611081243583902  0.3505421359289855
  0.8092540895821710  0.5611081331959998  0.8505421359419176
  0.1907459104622235  0.4388918667744911  0.1494578435704922
  0.6907459104289276  0.4388918667744911  0.3505421359289855
  0.3092540895044734  0.5611081331959998  0.6494578640968709
  0.0741170413327848  0.7500000176088264  0.5932677040662517
  0.9258829388436272  0.2500000000663931  0.4067322958734162
  0.4258829652935804  0.2500000000663931  0.0932676424267760
  0.5741170611674715  0.7500000176088264  0.9067323369994378
  0.1945885020826040  0.2500000000663931  0.9577077296810291
  0.8054114847534691  0.7500000176088264  0.0422922856868164
  0.3054114846757713  0.7500000176088264  0.4577076475281065
  0.6945885152576295  0.2500000000663931  0.5422922702715635
 
  0.00000000E+00  0.00000000E+00  0.00000000E+00
  0.00000000E+00  0.00000000E+00  0.00000000E+00
  0.00000000E+00  0.00000000E+00  0.00000000E+00
  0.00000000E+00  0.00000000E+00  0.00000000E+00
  0.00000000E+00  0.00000000E+00  0.00000000E+00
  0.00000000E+00  0.00000000E+00  0.00000000E+00
  0.00000000E+00  0.00000000E+00  0.00000000E+00
  0.00000000E+00  0.00000000E+00  0.00000000E+00
  0.00000000E+00  0.00000000E+00  0.00000000E+00
  0.00000000E+00  0.00000000E+00  0.00000000E+00
  0.00000000E+00  0.00000000E+00  0.00000000E+00
  0.00000000E+00  0.00000000E+00  0.00000000E+00
  0.00000000E+00  0.00000000E+00  0.00000000E+00
  0.00000000E+00  0.00000000E+00  0.00000000E+00
  0.00000000E+00  0.00000000E+00  0.00000000E+00
  0.00000000E+00  0.00000000E+00  0.00000000E+00
  0.00000000E+00  0.00000000E+00  0.00000000E+00
  0.00000000E+00  0.00000000E+00  0.00000000E+00
  0.00000000E+00  0.00000000E+00  0.00000000E+00
  0.00000000E+00  0.00000000E+00  0.00000000E+00
  0.00000000E+00  0.00000000E+00  0.00000000E+00
  0.00000000E+00  0.00000000E+00  0.00000000E+00
  0.00000000E+00  0.00000000E+00  0.00000000E+00
  0.00000000E+00  0.00000000E+00  0.00000000E+00
