ba8 si16                                
   1.00000000000000     
     9.0548054673491762   -0.0000000000000000    0.0000000000000000
     0.0000000000000000    6.7643945162191894    0.0000000000000000
     0.0000000000000000    0.0000000000000000   11.5881246529355000
   Ba   Si
     8    16
Direct
  0.0140354266980647  0.2500000000663931  0.6913840892588383
  0.9859645765651669  0.7500000176088264  0.3086159107670185
  0.4859645765984627  0.7500000176088264  0.1913840275331735
  0.5140354233349379  0.2500000000663931  0.8086159518930400
  0.1571694169305559  0.7500000176088264  0.9061557401756528
  0.8428305831138461  0.2500000000663931  0.0938442392505611
  0.3428305830361482  0.2500000000663931  0.4061558223889075
  0.6571694168972526  0.7500000176088264  0.5938442187500388
  0.1936303140222266  0.0720945396895359  0.1461800908093802
  0.8063696860221681  0.9279054514285874  0.8538198887030296
  0.3063696859444703  0.9279054514285874  0.6461801113357589
  0.6936303139889306  0.0720945396895359  0.3538198886900978
  0.8063696860221681  0.5720945485271458  0.8538198887030296
  0.1936303140222266  0.4279054514433455  0.1461800908093802
  0.6936303139889306  0.4279054514433455  0.3538198886900978
  0.3063696859444703  0.5720945485271458  0.6461801113357589
  0.0857376491526955  0.7500000176088264  0.5905822751066584
  0.9142623310237165  0.2500000000663931  0.4094177248330096
  0.4142623574736696  0.2500000000663931  0.0905822134671826
  0.5857376689873822  0.7500000176088264  0.9094177659590311
  0.1969055349571065  0.2500000000663931  0.9662236565068341
  0.8030944518789667  0.7500000176088264  0.0337763588610115
  0.3030944518012689  0.7500000176088264  0.4662235743539115
  0.6969055481321320  0.2500000000663931  0.5337763434457585
 
  0.00000000E+00  0.00000000E+00  0.00000000E+00
  0.00000000E+00  0.00000000E+00  0.00000000E+00
  0.00000000E+00  0.00000000E+00  0.00000000E+00
  0.00000000E+00  0.00000000E+00  0.00000000E+00
  0.00000000E+00  0.00000000E+00  0.00000000E+00
  0.00000000E+00  0.00000000E+00  0.00000000E+00
  0.00000000E+00  0.00000000E+00  0.00000000E+00
  0.00000000E+00  0.00000000E+00  0.00000000E+00
  0.00000000E+00  0.00000000E+00  0.00000000E+00
  0.00000000E+00  0.00000000E+00  0.00000000E+00
  0.00000000E+00  0.00000000E+00  0.00000000E+00
  0.00000000E+00  0.00000000E+00  0.00000000E+00
  0.00000000E+00  0.00000000E+00  0.00000000E+00
  0.00000000E+00  0.00000000E+00  0.00000000E+00
  0.00000000E+00  0.00000000E+00  0.00000000E+00
  0.00000000E+00  0.00000000E+00  0.00000000E+00
  0.00000000E+00  0.00000000E+00  0.00000000E+00
  0.00000000E+00  0.00000000E+00  0.00000000E+00
  0.00000000E+00  0.00000000E+00  0.00000000E+00
  0.00000000E+00  0.00000000E+00  0.00000000E+00
  0.00000000E+00  0.00000000E+00  0.00000000E+00
  0.00000000E+00  0.00000000E+00  0.00000000E+00
  0.00000000E+00  0.00000000E+00  0.00000000E+00
  0.00000000E+00  0.00000000E+00  0.00000000E+00
