ba8 si16                                
   1.00000000000000     
    24.0094680786000012    0.0000000000000000    0.0000000000000000
     0.0000000000000000    6.7778496741999996    0.0000000000000000
     0.0000000000000000    0.0000000000000000   11.6021432877000006
   Ba   Si
     8    16
Selective dynamics
Direct
  0.0056936146836932  0.2500000000663931  0.7065033030216373   F   T   T
  0.3695528538555379  0.7500000176088264  0.2934966970042194   F   T   T
  0.1819296202106742  0.7500000176088264  0.1872022280943332   F   T   T
  0.1933168470790463  0.2500000000663931  0.8127977513318806   F   T   T
  0.0597801408303269  0.7500000176088264  0.9197235885916428   F   T   T
  0.3154663265010456  0.2500000000663931  0.0802763908345708   F   T   T
  0.1278430928145298  0.2500000000663931  0.3989035660810681   F   T   T
  0.2474033744751907  0.7500000176088264  0.6010964750578783   F   T   T
  0.0728991332615152  0.0728264978282949  0.1466272770759117   F   T   T
  0.3023473340698573  0.9271734932898285  0.8533727024364979   F   T   T
  0.1147241003833415  0.9276363662108881  0.6584375447216946   F   T   T
  0.2605223669063790  0.0723636249072354  0.3415624553041621   F   T   T
  0.3023473340698573  0.5728265066659047  0.8533727024364979   F   T   T
  0.0728991332615152  0.4271734933045866  0.1466272770759117   F   T   T
  0.2605223669063790  0.4276363662256459  0.3415624553041621   F   T   T
  0.1147241003833415  0.5723636337448451  0.6584375447216946   F   T   T
  0.0311098080788312  0.7500000176088264  0.5995827187797924   F   T   T
  0.3441366517971503  0.2500000000663931  0.4004172811598755   F   T   T
  0.1565134280650469  0.2500000000663931  0.0865470644100613   F   T   T
  0.2187330491790789  0.7500000176088264  0.9134529150161528   F   T   T
  0.0741839757202953  0.2500000000663931  0.9650966430639752   F   T   T
  0.3010624866547005  0.7500000176088264  0.0349033723038705   F   T   T
  0.1134392529681918  0.7500000176088264  0.4766597716471205   F   T   T
  0.2618072143215286  0.2500000000663931  0.5233401461525495   F   T   T
 
  0.00000000E+00  0.00000000E+00  0.00000000E+00
  0.00000000E+00  0.00000000E+00  0.00000000E+00
  0.00000000E+00  0.00000000E+00  0.00000000E+00
  0.00000000E+00  0.00000000E+00  0.00000000E+00
  0.00000000E+00  0.00000000E+00  0.00000000E+00
  0.00000000E+00  0.00000000E+00  0.00000000E+00
  0.00000000E+00  0.00000000E+00  0.00000000E+00
  0.00000000E+00  0.00000000E+00  0.00000000E+00
  0.00000000E+00  0.00000000E+00  0.00000000E+00
  0.00000000E+00  0.00000000E+00  0.00000000E+00
  0.00000000E+00  0.00000000E+00  0.00000000E+00
  0.00000000E+00  0.00000000E+00  0.00000000E+00
  0.00000000E+00  0.00000000E+00  0.00000000E+00
  0.00000000E+00  0.00000000E+00  0.00000000E+00
  0.00000000E+00  0.00000000E+00  0.00000000E+00
  0.00000000E+00  0.00000000E+00  0.00000000E+00
  0.00000000E+00  0.00000000E+00  0.00000000E+00
  0.00000000E+00  0.00000000E+00  0.00000000E+00
  0.00000000E+00  0.00000000E+00  0.00000000E+00
  0.00000000E+00  0.00000000E+00  0.00000000E+00
  0.00000000E+00  0.00000000E+00  0.00000000E+00
  0.00000000E+00  0.00000000E+00  0.00000000E+00
  0.00000000E+00  0.00000000E+00  0.00000000E+00
  0.00000000E+00  0.00000000E+00  0.00000000E+00
