ba8 si16                                
   1.00000000000000     
    24.0024196195248081    0.0000000000000000    0.0000000000000000
     0.0000000000000000    6.7747291311718234    0.0000000000000000
     0.0000000000000000    0.0000000000000000   11.5936298188555167
   Ba   Si
     8    16
Selective dynamics
Direct
  0.0150464535886243  0.2500000000663931  0.6096071007733503   F   T   T
  0.9849535496746071  0.7500000176088264  0.3903928992525062   F   T   T
  0.4849535497079032  0.7500000176088264  0.1096070390476859   F   T   T
  0.5150464502254977  0.2500000000663931  0.8903929403785280   F   T   T
  0.1590984050928199  0.7500000176088264  0.8170083358143670   F   T   T
  0.8409015949515819  0.2500000000663931  0.1829916436118460   F   T   T
  0.3409015948738841  0.2500000000663931  0.3170084180276226   F   T   T
  0.6590984050595168  0.7500000176088264  0.6829916231113246   F   T   T
  0.1943009373420566  0.0824194160297096  0.0131047552153984   F   T   T
  0.8056990627023382  0.9175805750884137  0.9868952242970112   F   T   T
  0.3056990626246403  0.9175805750884136  0.5131047757417774   F   T   T
  0.6943009373087605  0.0824194160297096  0.4868952242840794   F   T   T
  0.8056990627023382  0.5824194248673196  0.9868952242970112   F   T   T
  0.1943009373420566  0.4175805751031718  0.0131047552153984   F   T   T
  0.6943009373087605  0.4175805751031718  0.4868952242840794   F   T   T
  0.3056990626246403  0.5824194248673195  0.5131047757417774   F   T   T
  0.0834696518888762  0.7500000176088264  0.5838689792846160   F   T   T
  0.9165303282875357  0.2500000000663931  0.4161310206550516   F   T   T
  0.4165303547374890  0.2500000000663931  0.0838689176451407   F   T   T
  0.5834696717235630  0.7500000176088264  0.9161310617810735   F   T   T
  0.1978298515383159  0.2500000000663931  0.8365130828549787   F   T   T
  0.8021701352977573  0.7500000176088264  0.1634869325128668   F   T   T
  0.3021701352200594  0.7500000176088264  0.3365130007020564   F   T   T
  0.6978298647133414  0.2500000000663931  0.6634869170976139   F   T   T
 
  0.00000000E+00  0.00000000E+00  0.00000000E+00
  0.00000000E+00  0.00000000E+00  0.00000000E+00
  0.00000000E+00  0.00000000E+00  0.00000000E+00
  0.00000000E+00  0.00000000E+00  0.00000000E+00
  0.00000000E+00  0.00000000E+00  0.00000000E+00
  0.00000000E+00  0.00000000E+00  0.00000000E+00
  0.00000000E+00  0.00000000E+00  0.00000000E+00
  0.00000000E+00  0.00000000E+00  0.00000000E+00
  0.00000000E+00  0.00000000E+00  0.00000000E+00
  0.00000000E+00  0.00000000E+00  0.00000000E+00
  0.00000000E+00  0.00000000E+00  0.00000000E+00
  0.00000000E+00  0.00000000E+00  0.00000000E+00
  0.00000000E+00  0.00000000E+00  0.00000000E+00
  0.00000000E+00  0.00000000E+00  0.00000000E+00
  0.00000000E+00  0.00000000E+00  0.00000000E+00
  0.00000000E+00  0.00000000E+00  0.00000000E+00
  0.00000000E+00  0.00000000E+00  0.00000000E+00
  0.00000000E+00  0.00000000E+00  0.00000000E+00
  0.00000000E+00  0.00000000E+00  0.00000000E+00
  0.00000000E+00  0.00000000E+00  0.00000000E+00
  0.00000000E+00  0.00000000E+00  0.00000000E+00
  0.00000000E+00  0.00000000E+00  0.00000000E+00
  0.00000000E+00  0.00000000E+00  0.00000000E+00
  0.00000000E+00  0.00000000E+00  0.00000000E+00
