C                                       
   1.00000000000000     
     2.4669585503746263    0.0000000000000000    0.0000000000000000
    -1.2334792751873132    2.1364487747173286    0.0000000000000000
    -0.0000000000000000    0.0000000000000000    8.1685123616200332
   C 
     4
Selective Dynamics
Direct
  0.0000000000000000 -0.0000000000000000  0.0000000000000000 T T F
 -0.0000000000000000  0.0000000000000000  0.5000000000597353 T T F
  0.3333333432379320  0.6666666864758639 -0.0000000000000000 T T F
  0.6666666270498567  0.3333333133830934  0.5000000000597353 T T F
