ba8 si16                                
   1.00000000000000     
     8.9058349334757132    0.0000000000000000    0.0000000000000000
     0.0000000000000000    6.7258521249300571    0.0000000000000000
     0.0000000000000000    0.0000000000000000   11.5054847022705733
   Ba   Si
     8    16
Direct
  0.0154104127190212  0.2500000000663931  0.6921559588373343
  0.9845895905442107  0.7500000176088264  0.3078440411885223
  0.4845895905775063  0.7500000176088264  0.1921558971116698
  0.5154104093558941  0.2500000000663931  0.8078440823145441
  0.1607561260888226  0.7500000176088264  0.9064133010558376
  0.8392438739555792  0.2500000000663931  0.0935866783703763
  0.3392438738778815  0.2500000000663931  0.4064133832690922
  0.6607561260555195  0.7500000176088264  0.5935866578698540
  0.1933451295986555  0.0709430669326480  0.1462722185181747
  0.8066548704457396  0.9290569241854754  0.8537277609942351
  0.3066548703680414  0.9290569241854754  0.6462722390445534
  0.6933451295653591  0.0709430669326480  0.3537277609813032
  0.8066548704457396  0.5709430757702578  0.8537277609942351
  0.1933451295986555  0.4290569242002334  0.1462722185181747
  0.6933451295653591  0.4290569242002334  0.3537277609813032
  0.3066548703680414  0.5709430757702578  0.6462722390445534
  0.0813652011031710  0.7500000176088264  0.5908922144807001
  0.9186347790732408  0.2500000000663931  0.4091077854589679
  0.4186348055231943  0.2500000000663931  0.0908921528412243
  0.5813652209378579  0.7500000176088264  0.9091078265849895
  0.1964353752788288  0.2500000000663931  0.9648295102894179
  0.8035646115572442  0.7500000176088264  0.0351705050784276
  0.3035646114795466  0.7500000176088264  0.4648294281364955
  0.6964353884538544  0.2500000000663931  0.5351704896631747
 
  0.00000000E+00  0.00000000E+00  0.00000000E+00
  0.00000000E+00  0.00000000E+00  0.00000000E+00
  0.00000000E+00  0.00000000E+00  0.00000000E+00
  0.00000000E+00  0.00000000E+00  0.00000000E+00
  0.00000000E+00  0.00000000E+00  0.00000000E+00
  0.00000000E+00  0.00000000E+00  0.00000000E+00
  0.00000000E+00  0.00000000E+00  0.00000000E+00
  0.00000000E+00  0.00000000E+00  0.00000000E+00
  0.00000000E+00  0.00000000E+00  0.00000000E+00
  0.00000000E+00  0.00000000E+00  0.00000000E+00
  0.00000000E+00  0.00000000E+00  0.00000000E+00
  0.00000000E+00  0.00000000E+00  0.00000000E+00
  0.00000000E+00  0.00000000E+00  0.00000000E+00
  0.00000000E+00  0.00000000E+00  0.00000000E+00
  0.00000000E+00  0.00000000E+00  0.00000000E+00
  0.00000000E+00  0.00000000E+00  0.00000000E+00
  0.00000000E+00  0.00000000E+00  0.00000000E+00
  0.00000000E+00  0.00000000E+00  0.00000000E+00
  0.00000000E+00  0.00000000E+00  0.00000000E+00
  0.00000000E+00  0.00000000E+00  0.00000000E+00
  0.00000000E+00  0.00000000E+00  0.00000000E+00
  0.00000000E+00  0.00000000E+00  0.00000000E+00
  0.00000000E+00  0.00000000E+00  0.00000000E+00
  0.00000000E+00  0.00000000E+00  0.00000000E+00
