ba8 si16                                
   1.00000000000000     
    21.2562414974125602    0.0000000000000000    0.0000000000000000
     0.0000000000000000    6.3665773795021519    0.0000000000000000
     0.0000000000000000    0.0000000000000000   10.0813812751381722
   Ba   Si
     4     8
Direct
  0.0470678355168470  0.2500000000663931  0.8044983783155142
  0.1838880985616899  0.7500000176088264  0.3044983165898495
  0.1839874800605012  0.7500000176088264  0.8452362400279859
  0.0469684524799523  0.2500000000663931  0.3452363222412407
  0.1117583260632216  0.0589327506928118  0.0748773651757727
  0.1191976064772319  0.9410672404253119  0.5748773857021514
  0.1117583260632216  0.4410672404400697  0.0748773651757727
  0.1191976064772319  0.5589327595304213  0.5748773857021514
  0.0373436007853696  0.7500000176088264  0.6938678648977744
  0.1936123348312579  0.2500000000663931  0.1938678032582988
  0.1939479667809645  0.2500000000663931  0.9570317849157379
  0.0370079596584067  0.7500000176088264  0.4570317027628152
 
  0.00000000E+00  0.00000000E+00  0.00000000E+00
  0.00000000E+00  0.00000000E+00  0.00000000E+00
  0.00000000E+00  0.00000000E+00  0.00000000E+00
  0.00000000E+00  0.00000000E+00  0.00000000E+00
  0.00000000E+00  0.00000000E+00  0.00000000E+00
  0.00000000E+00  0.00000000E+00  0.00000000E+00
  0.00000000E+00  0.00000000E+00  0.00000000E+00
  0.00000000E+00  0.00000000E+00  0.00000000E+00
  0.00000000E+00  0.00000000E+00  0.00000000E+00
  0.00000000E+00  0.00000000E+00  0.00000000E+00
  0.00000000E+00  0.00000000E+00  0.00000000E+00
  0.00000000E+00  0.00000000E+00  0.00000000E+00
