ba8 si16                                
   1.00000000000000     
    19.5047340393000006    0.0000000000000000    0.0000000000000000
     0.0000000000000000    6.7778496741999996    0.0000000000000000
     0.0000000000000000    0.0000000000000000   11.6021432877000006
   Ba   Si
     4     8
Direct
  0.0640657288049879  0.2500000000663931  0.7801912830440331
  0.1668902052735491  0.7500000176088264  0.2801912213183683
  0.1681865427559204  0.7500000176088264  0.8698763853150647
  0.0627693897845330  0.2500000000663931  0.3698764675283196
  0.0942383463202211  0.0737153106412352  0.0745359222312656
  0.1367175862202324  0.9262846804768881  0.5745359427576445
  0.0942383463202211  0.4262846804916460  0.0745359222312656
  0.1367175862202324  0.5737153194788451  0.5745359427576445
  0.0420980230890321  0.7500000176088264  0.6769030514494732
  0.1888579125275954  0.2500000000663931  0.1769029898099978
  0.1895759244986179  0.2500000000663931  0.9743464342374629
  0.0413800019407533  0.7500000176088264  0.4743463520845400
 
  0.00000000E+00  0.00000000E+00  0.00000000E+00
  0.00000000E+00  0.00000000E+00  0.00000000E+00
  0.00000000E+00  0.00000000E+00  0.00000000E+00
  0.00000000E+00  0.00000000E+00  0.00000000E+00
  0.00000000E+00  0.00000000E+00  0.00000000E+00
  0.00000000E+00  0.00000000E+00  0.00000000E+00
  0.00000000E+00  0.00000000E+00  0.00000000E+00
  0.00000000E+00  0.00000000E+00  0.00000000E+00
  0.00000000E+00  0.00000000E+00  0.00000000E+00
  0.00000000E+00  0.00000000E+00  0.00000000E+00
  0.00000000E+00  0.00000000E+00  0.00000000E+00
  0.00000000E+00  0.00000000E+00  0.00000000E+00
