ba8 si16                                
   1.00000000000000     
    86.3099020597403950    0.0000000000000000    0.0088190685718251
     0.0000000000000000    6.7021756958325538    0.0000000000000000
     0.0011385530135900    0.0000000000000000   11.4745220000684593
   Ba   Si
    64   128
Direct
  0.0038757542632777  0.2500000000663931  0.7006497200682700
  0.1052353901741901  0.2500000000663931  0.6905106703970696
  0.2085695492949610  0.2500000000663931  0.6912240066755948
  0.3120470170875145  0.2500000000663931  0.6914248061519220
  0.4155118589721940  0.2500000000663931  0.6914899644364079
  0.5189799132853531  0.2500000000663931  0.6912591564747450
  0.6224511077510633  0.2500000000663931  0.6914789681247903
  0.7259189476622503  0.2500000000663931  0.6918470288840814
  0.1018172259664998  0.7500000176088264  0.3081529711417752
  0.2052850768336663  0.7500000176088264  0.3085210319010661
  0.3087562712993765  0.7500000176088264  0.3087408435511118
  0.4122243256125355  0.7500000176088264  0.3085100355894491
  0.5156891674972151  0.7500000176088264  0.3085751938739345
  0.6191666352897685  0.7500000176088264  0.3087759933502620
  0.7225008053665187  0.7500000176088264  0.3094893296287867
  0.8238603978095245  0.7500000176088264  0.2993502799575867
  0.0488886292519775  0.7500000176088264  0.1927701372400478
  0.1535190308110286  0.7500000176088264  0.1914439954088491
  0.2570170188750296  0.7500000176088264  0.1914094567241966
  0.3604870254958772  0.7500000176088264  0.1915602277991684
  0.4639657028703139  0.7500000176088264  0.1915780208633480
  0.5674290992049924  0.7500000176088264  0.1914692233092949
  0.6709179113285293  0.7500000176088264  0.1913792669777683
  0.7740482153727872  0.7500000176088264  0.1918713529528591
  0.0536879801564393  0.2500000000663931  0.8081286264733545
  0.1568182842006966  0.2500000000663931  0.8086207124484457
  0.2603070853797366  0.2500000000663931  0.8085307561169189
  0.3637704817144157  0.2500000000663931  0.8084219585628659
  0.4672491590888523  0.2500000000663931  0.8084397516270452
  0.5707191657096998  0.2500000000663931  0.8085905227020174
  0.6742171428292042  0.2500000000663931  0.8085559840173648
  0.7788475443767728  0.2500000000663931  0.8072298421861660
  0.0221564104519911  0.7500000176088264  0.9119898151954241
  0.1204145708886629  0.7500000176088264  0.9061144522250087
  0.2235626742208063  0.7500000176088264  0.9058118177563352
  0.3270530309992557  0.7500000176088264  0.9059620411123457
  0.4304823083718280  0.7500000176088264  0.9060203130665294
  0.5339680879375058  0.7500000176088264  0.9058931802275285
  0.6374741978580447  0.7500000176088264  0.9059624357085286
  0.7413341809048632  0.7500000176088264  0.9069916635911830
  0.0864019817793966  0.2500000000663931  0.0930083158350308
  0.1902619648147262  0.2500000000663931  0.0940375437176852
  0.2937680747467549  0.2500000000663931  0.0941067991986853
  0.3972538762129015  0.2500000000663931  0.0939796663596845
  0.5006831754859502  0.2500000000663931  0.0940379383138683
  0.6041735322643993  0.2500000000663931  0.0941881616698787
  0.7073216356080254  0.2500000000663931  0.0938855272012050
  0.8055797960332143  0.2500000000663931  0.0880101642307898
  0.0357683059497465  0.2500000000663931  0.3951119354030321
  0.1385750218599214  0.2500000000663931  0.4050194276910274
  0.2420045394410892  0.2500000000663931  0.4057475190683810
  0.3455012559367708  0.2500000000663931  0.4058343284135897
  0.4489373041011984  0.2500000000663931  0.4059012253093918
  0.5524145122352223  0.2500000000663931  0.4058492232278289
  0.6558773510896595  0.2500000000663931  0.4060901150050559
  0.7590512661406936  0.2500000000663931  0.4046575539920812
  0.0686848965320842  0.7500000176088264  0.5953424871468654
  0.1718588553955392  0.7500000176088264  0.5939099261338908
  0.2753216942499832  0.7500000176088264  0.5941508179111176
  0.3787988804835311  0.7500000176088264  0.5940988158295549
  0.4822349067360073  0.7500000176088264  0.5941657127253567
  0.5857316232431643  0.7500000176088264  0.5942525220705653
  0.6891611408243392  0.7500000176088264  0.5949806134479192
  0.7919679005354591  0.7500000176088264  0.6048881057359143
  0.0187380252976624  0.0715096786983684  0.1449254074916652
  0.1232236631389445  0.0703824671196869  0.1459640098246310
  0.2267922575822769  0.0702716001114169  0.1461155585366580
  0.3302877227275517  0.0703017621956011  0.1462551218722341
  0.4337869149208363  0.0702809964582606  0.1461811909788788
  0.5372057124884909  0.0702514626951943  0.1461506580461493
  0.6406938742930526  0.0702732338033388  0.1463154006297417
  0.7435516044348449  0.0699513623463352  0.1454595946793642
  0.0841845527714222  0.9300486287717882  0.8545403848330460
  0.1870423321921528  0.9297267573147846  0.8536845788826682
  0.2905304720962457  0.9297485284229293  0.8538493214662601
  0.3939492696638933  0.9297189946598630  0.8538187885335311
  0.4974484399567088  0.9296982289225224  0.8537448576401755
  0.6009439050904939  0.9297283910067066  0.8538844209757520
  0.7045125104898060  0.9296175239984368  0.8540359696877790
  0.8089981866655293  0.9284903124197553  0.8550745720207445
  0.0322257749949193  0.9284859151760468  0.6417161155060165
  0.1353721860880280  0.9297297977382809  0.6454937608771846
  0.2388024408183766  0.9297695667050572  0.6459912759382326
  0.3422737310759505  0.9297146063333008  0.6460860605862732
  0.4457205221826804  0.9296966868038363  0.6462046121996894
  0.5492063763070127  0.9297541453712478  0.6460770880280599
  0.6526568831292284  0.9296956330820612  0.6462785182224993
  0.7561891949033590  0.9303814176324927  0.6470770895259738
  0.0715469732474054  0.0696185734856306  0.3529229104998830
  0.1750792904995223  0.0703043580360621  0.3537214818033577
  0.2785298082777163  0.0702458457468758  0.3539229119977971
  0.3820156624020491  0.0703033043142874  0.3537953878261673
  0.4854624535087861  0.0702853847848228  0.3539139394395838
  0.5889337437663527  0.0702304244130660  0.3540087240876244
  0.6923640094411981  0.0702701933798428  0.3545062391486720
  0.7955104260123005  0.0715140759420763  0.3582838845198398
  0.0841845527714222  0.5699513711839450  0.8545403848330460
  0.1870423321921528  0.5702732426409486  0.8536845788826682
  0.2905304720962457  0.5702514715328039  0.8538493214662601
  0.3939492696638933  0.5702810052958702  0.8538187885335311
  0.4974484399567088  0.5703017710332108  0.8537448576401755
  0.6009439050904939  0.5702716089490266  0.8538844209757520
  0.7045125104898060  0.5703824759572964  0.8540359696877790
  0.8089981866655293  0.5715096875359779  0.8550745720207445
  0.0187380252976624  0.4284903124345129  0.1449254074916652
  0.1232236631389445  0.4296175240131945  0.1459640098246310
  0.2267922575822769  0.4297283910214644  0.1461155585366580
  0.3302877227275517  0.4296982289372803  0.1462551218722341
  0.4337869149208363  0.4297189946746209  0.1461811909788788
  0.5372057124884909  0.4297485284376872  0.1461506580461493
  0.6406938742930526  0.4297267573295427  0.1463154006297417
  0.7435516044348449  0.4300486287865463  0.1454595946793642
  0.0715469732474054  0.4303814176472508  0.3529229104998830
  0.1750792904995223  0.4296956330968194  0.3537214818033577
  0.2785298082777163  0.4297541453860054  0.3539229119977971
  0.3820156624020491  0.4296966868185940  0.3537953878261673
  0.4854624535087861  0.4297146063480584  0.3539139394395838
  0.5889337437663527  0.4297695667198156  0.3540087240876244
  0.6923640094411981  0.4297297977530385  0.3545062391486720
  0.7955104260123005  0.4284859151908051  0.3582838845198398
  0.0322257749949193  0.5715140847796863  0.6417161155060165
  0.1353721860880280  0.5702702022174523  0.6454937608771846
  0.2388024408183766  0.5702304332506760  0.6459912759382326
  0.3422737310759505  0.5702853936224324  0.6460860605862732
  0.4457205221826804  0.5703033131518969  0.6462046121996894
  0.5492063763070127  0.5702458545844854  0.6460770880280599
  0.6526568831292284  0.5703043668736720  0.6462785182224993
  0.7561891949033590  0.5696185823232405  0.6470770895259738
  0.0077090915487377  0.7500000176088264  0.6188256618105437
  0.1120986758801887  0.7500000176088264  0.5914952517510059
  0.2155416691762999  0.7500000176088264  0.5914961804239236
  0.3189980110893423  0.7500000176088264  0.5916821896113871
  0.4224500384517436  0.7500000176088264  0.5917347812210237
  0.5259454557722756  0.7500000176088264  0.5915252361455902
  0.6293937180019676  0.7500000176088264  0.5916208665466417
  0.7329942736978807  0.7500000176088264  0.5923470717654921
  0.0947418999308694  0.2500000000663931  0.4076529281741759
  0.1983424446708103  0.2500000000663931  0.4083791333930258
  0.3017907069119781  0.2500000000663931  0.4084747637940776
  0.4052861461329859  0.2500000000663931  0.4082652187186440
  0.5087381953958632  0.2500000000663931  0.4083178103282806
  0.6121945373089057  0.2500000000663931  0.4085038195157444
  0.7156375196605199  0.2500000000663931  0.4085047481886623
  0.8200271457487200  0.2500000000663931  0.3811743381291243
  0.0424651837484872  0.2500000000663931  0.0821973504497320
  0.1465318418109590  0.2500000000663931  0.0916280923319755
  0.2500406901569431  0.2500000000663931  0.0912152843944880
  0.3535563400490854  0.2500000000663931  0.0915415828918021
  0.4570567283582503  0.2500000000663931  0.0914708971227738
  0.5604542653425735  0.2500000000663931  0.0912707456186578
  0.6639500739048831  0.2500000000663931  0.0916043808871922
  0.7666390397266200  0.2500000000663931  0.0906817227361448
  0.0610971558140887  0.7500000176088264  0.9093182566900692
  0.1637861216243430  0.7500000176088264  0.9083955985390216
  0.2672819411541146  0.7500000176088264  0.9087292338075562
  0.3706794562264792  0.7500000176088264  0.9085290823034397
  0.4741798226236856  0.7500000176088264  0.9084583965344115
  0.5776954725158276  0.7500000176088264  0.9087846950317260
  0.6812043318292806  0.7500000176088264  0.9083718870942384
  0.7852709926135150  0.7500000176088264  0.9178026289764817
  0.0189475442402708  0.2500000000663931  0.9623451913842505
  0.1236692727446919  0.2500000000663931  0.9643014572395462
  0.2271495401896619  0.2500000000663931  0.9643348266808255
  0.3306872288045585  0.2500000000663931  0.9644638251605611
  0.4341806982522083  0.2500000000663931  0.9644078640788001
  0.5375677636869445  0.2500000000663931  0.9643662055987059
  0.6411005250799232  0.2500000000663931  0.9644884441364701
  0.7443202701599344  0.2500000000663931  0.9629444928957328
  0.0834158541898847  0.7500000176088264  0.0370555224721126
  0.1866356375928479  0.7500000176088264  0.0355115712313756
  0.2901683989973163  0.7500000176088264  0.0356338097691396
  0.3935554863325212  0.7500000176088264  0.0355921512890454
  0.4970489776806400  0.7500000176088264  0.0355361902072847
  0.6005866662955439  0.7500000176088264  0.0356651886870199
  0.7040669337519957  0.7500000176088264  0.0356985581282991
  0.8087886992127467  0.7500000176088264  0.0376548239835954
  0.0267462692813765  0.7500000176088264  0.4618312577492109
  0.1349369641582502  0.7500000176088264  0.4637785019150294
  0.2384096370306104  0.7500000176088264  0.4642538942035890
  0.3418542070799819  0.7500000176088264  0.4643098040455197
  0.4453040806801152  0.7500000176088264  0.4644163328556509
  0.5488196555845083  0.7500000176088264  0.4643289817165969
  0.6522661268530459  0.7500000176088264  0.4644284870926100
  0.7558013362759894  0.7500000176088264  0.4650855649197206
  0.0719348647312297  0.2500000000663931  0.5349143528799495
  0.1754700796321595  0.2500000000663931  0.5355714307070599
  0.2789165509006903  0.2500000000663931  0.5356709360830735
  0.3824321039046144  0.2500000000663931  0.5355835849440190
  0.4858819555927891  0.2500000000663931  0.5356901137541499
  0.5893265256536503  0.2500000000663931  0.5357460235960807
  0.6927991985260031  0.2500000000663931  0.5362214158846408
  0.8009898988693882  0.2500000000663931  0.5381686600504592
 
  0.00000000E+00  0.00000000E+00  0.00000000E+00
  0.00000000E+00  0.00000000E+00  0.00000000E+00
  0.00000000E+00  0.00000000E+00  0.00000000E+00
  0.00000000E+00  0.00000000E+00  0.00000000E+00
  0.00000000E+00  0.00000000E+00  0.00000000E+00
  0.00000000E+00  0.00000000E+00  0.00000000E+00
  0.00000000E+00  0.00000000E+00  0.00000000E+00
  0.00000000E+00  0.00000000E+00  0.00000000E+00
  0.00000000E+00  0.00000000E+00  0.00000000E+00
  0.00000000E+00  0.00000000E+00  0.00000000E+00
  0.00000000E+00  0.00000000E+00  0.00000000E+00
  0.00000000E+00  0.00000000E+00  0.00000000E+00
  0.00000000E+00  0.00000000E+00  0.00000000E+00
  0.00000000E+00  0.00000000E+00  0.00000000E+00
  0.00000000E+00  0.00000000E+00  0.00000000E+00
  0.00000000E+00  0.00000000E+00  0.00000000E+00
  0.00000000E+00  0.00000000E+00  0.00000000E+00
  0.00000000E+00  0.00000000E+00  0.00000000E+00
  0.00000000E+00  0.00000000E+00  0.00000000E+00
  0.00000000E+00  0.00000000E+00  0.00000000E+00
  0.00000000E+00  0.00000000E+00  0.00000000E+00
  0.00000000E+00  0.00000000E+00  0.00000000E+00
  0.00000000E+00  0.00000000E+00  0.00000000E+00
  0.00000000E+00  0.00000000E+00  0.00000000E+00
  0.00000000E+00  0.00000000E+00  0.00000000E+00
  0.00000000E+00  0.00000000E+00  0.00000000E+00
  0.00000000E+00  0.00000000E+00  0.00000000E+00
  0.00000000E+00  0.00000000E+00  0.00000000E+00
  0.00000000E+00  0.00000000E+00  0.00000000E+00
  0.00000000E+00  0.00000000E+00  0.00000000E+00
  0.00000000E+00  0.00000000E+00  0.00000000E+00
  0.00000000E+00  0.00000000E+00  0.00000000E+00
  0.00000000E+00  0.00000000E+00  0.00000000E+00
  0.00000000E+00  0.00000000E+00  0.00000000E+00
  0.00000000E+00  0.00000000E+00  0.00000000E+00
  0.00000000E+00  0.00000000E+00  0.00000000E+00
  0.00000000E+00  0.00000000E+00  0.00000000E+00
  0.00000000E+00  0.00000000E+00  0.00000000E+00
  0.00000000E+00  0.00000000E+00  0.00000000E+00
  0.00000000E+00  0.00000000E+00  0.00000000E+00
  0.00000000E+00  0.00000000E+00  0.00000000E+00
  0.00000000E+00  0.00000000E+00  0.00000000E+00
  0.00000000E+00  0.00000000E+00  0.00000000E+00
  0.00000000E+00  0.00000000E+00  0.00000000E+00
  0.00000000E+00  0.00000000E+00  0.00000000E+00
  0.00000000E+00  0.00000000E+00  0.00000000E+00
  0.00000000E+00  0.00000000E+00  0.00000000E+00
  0.00000000E+00  0.00000000E+00  0.00000000E+00
  0.00000000E+00  0.00000000E+00  0.00000000E+00
  0.00000000E+00  0.00000000E+00  0.00000000E+00
  0.00000000E+00  0.00000000E+00  0.00000000E+00
  0.00000000E+00  0.00000000E+00  0.00000000E+00
  0.00000000E+00  0.00000000E+00  0.00000000E+00
  0.00000000E+00  0.00000000E+00  0.00000000E+00
  0.00000000E+00  0.00000000E+00  0.00000000E+00
  0.00000000E+00  0.00000000E+00  0.00000000E+00
  0.00000000E+00  0.00000000E+00  0.00000000E+00
  0.00000000E+00  0.00000000E+00  0.00000000E+00
  0.00000000E+00  0.00000000E+00  0.00000000E+00
  0.00000000E+00  0.00000000E+00  0.00000000E+00
  0.00000000E+00  0.00000000E+00  0.00000000E+00
  0.00000000E+00  0.00000000E+00  0.00000000E+00
  0.00000000E+00  0.00000000E+00  0.00000000E+00
  0.00000000E+00  0.00000000E+00  0.00000000E+00
  0.00000000E+00  0.00000000E+00  0.00000000E+00
  0.00000000E+00  0.00000000E+00  0.00000000E+00
  0.00000000E+00  0.00000000E+00  0.00000000E+00
  0.00000000E+00  0.00000000E+00  0.00000000E+00
  0.00000000E+00  0.00000000E+00  0.00000000E+00
  0.00000000E+00  0.00000000E+00  0.00000000E+00
  0.00000000E+00  0.00000000E+00  0.00000000E+00
  0.00000000E+00  0.00000000E+00  0.00000000E+00
  0.00000000E+00  0.00000000E+00  0.00000000E+00
  0.00000000E+00  0.00000000E+00  0.00000000E+00
  0.00000000E+00  0.00000000E+00  0.00000000E+00
  0.00000000E+00  0.00000000E+00  0.00000000E+00
  0.00000000E+00  0.00000000E+00  0.00000000E+00
  0.00000000E+00  0.00000000E+00  0.00000000E+00
  0.00000000E+00  0.00000000E+00  0.00000000E+00
  0.00000000E+00  0.00000000E+00  0.00000000E+00
  0.00000000E+00  0.00000000E+00  0.00000000E+00
  0.00000000E+00  0.00000000E+00  0.00000000E+00
  0.00000000E+00  0.00000000E+00  0.00000000E+00
  0.00000000E+00  0.00000000E+00  0.00000000E+00
  0.00000000E+00  0.00000000E+00  0.00000000E+00
  0.00000000E+00  0.00000000E+00  0.00000000E+00
  0.00000000E+00  0.00000000E+00  0.00000000E+00
  0.00000000E+00  0.00000000E+00  0.00000000E+00
  0.00000000E+00  0.00000000E+00  0.00000000E+00
  0.00000000E+00  0.00000000E+00  0.00000000E+00
  0.00000000E+00  0.00000000E+00  0.00000000E+00
  0.00000000E+00  0.00000000E+00  0.00000000E+00
  0.00000000E+00  0.00000000E+00  0.00000000E+00
  0.00000000E+00  0.00000000E+00  0.00000000E+00
  0.00000000E+00  0.00000000E+00  0.00000000E+00
  0.00000000E+00  0.00000000E+00  0.00000000E+00
  0.00000000E+00  0.00000000E+00  0.00000000E+00
  0.00000000E+00  0.00000000E+00  0.00000000E+00
  0.00000000E+00  0.00000000E+00  0.00000000E+00
  0.00000000E+00  0.00000000E+00  0.00000000E+00
  0.00000000E+00  0.00000000E+00  0.00000000E+00
  0.00000000E+00  0.00000000E+00  0.00000000E+00
  0.00000000E+00  0.00000000E+00  0.00000000E+00
  0.00000000E+00  0.00000000E+00  0.00000000E+00
  0.00000000E+00  0.00000000E+00  0.00000000E+00
  0.00000000E+00  0.00000000E+00  0.00000000E+00
  0.00000000E+00  0.00000000E+00  0.00000000E+00
  0.00000000E+00  0.00000000E+00  0.00000000E+00
  0.00000000E+00  0.00000000E+00  0.00000000E+00
  0.00000000E+00  0.00000000E+00  0.00000000E+00
  0.00000000E+00  0.00000000E+00  0.00000000E+00
  0.00000000E+00  0.00000000E+00  0.00000000E+00
  0.00000000E+00  0.00000000E+00  0.00000000E+00
  0.00000000E+00  0.00000000E+00  0.00000000E+00
  0.00000000E+00  0.00000000E+00  0.00000000E+00
  0.00000000E+00  0.00000000E+00  0.00000000E+00
  0.00000000E+00  0.00000000E+00  0.00000000E+00
  0.00000000E+00  0.00000000E+00  0.00000000E+00
  0.00000000E+00  0.00000000E+00  0.00000000E+00
  0.00000000E+00  0.00000000E+00  0.00000000E+00
  0.00000000E+00  0.00000000E+00  0.00000000E+00
  0.00000000E+00  0.00000000E+00  0.00000000E+00
  0.00000000E+00  0.00000000E+00  0.00000000E+00
  0.00000000E+00  0.00000000E+00  0.00000000E+00
  0.00000000E+00  0.00000000E+00  0.00000000E+00
  0.00000000E+00  0.00000000E+00  0.00000000E+00
  0.00000000E+00  0.00000000E+00  0.00000000E+00
  0.00000000E+00  0.00000000E+00  0.00000000E+00
  0.00000000E+00  0.00000000E+00  0.00000000E+00
  0.00000000E+00  0.00000000E+00  0.00000000E+00
  0.00000000E+00  0.00000000E+00  0.00000000E+00
  0.00000000E+00  0.00000000E+00  0.00000000E+00
  0.00000000E+00  0.00000000E+00  0.00000000E+00
  0.00000000E+00  0.00000000E+00  0.00000000E+00
  0.00000000E+00  0.00000000E+00  0.00000000E+00
  0.00000000E+00  0.00000000E+00  0.00000000E+00
  0.00000000E+00  0.00000000E+00  0.00000000E+00
  0.00000000E+00  0.00000000E+00  0.00000000E+00
  0.00000000E+00  0.00000000E+00  0.00000000E+00
  0.00000000E+00  0.00000000E+00  0.00000000E+00
  0.00000000E+00  0.00000000E+00  0.00000000E+00
  0.00000000E+00  0.00000000E+00  0.00000000E+00
  0.00000000E+00  0.00000000E+00  0.00000000E+00
  0.00000000E+00  0.00000000E+00  0.00000000E+00
  0.00000000E+00  0.00000000E+00  0.00000000E+00
  0.00000000E+00  0.00000000E+00  0.00000000E+00
  0.00000000E+00  0.00000000E+00  0.00000000E+00
  0.00000000E+00  0.00000000E+00  0.00000000E+00
  0.00000000E+00  0.00000000E+00  0.00000000E+00
  0.00000000E+00  0.00000000E+00  0.00000000E+00
  0.00000000E+00  0.00000000E+00  0.00000000E+00
  0.00000000E+00  0.00000000E+00  0.00000000E+00
  0.00000000E+00  0.00000000E+00  0.00000000E+00
  0.00000000E+00  0.00000000E+00  0.00000000E+00
  0.00000000E+00  0.00000000E+00  0.00000000E+00
  0.00000000E+00  0.00000000E+00  0.00000000E+00
  0.00000000E+00  0.00000000E+00  0.00000000E+00
  0.00000000E+00  0.00000000E+00  0.00000000E+00
  0.00000000E+00  0.00000000E+00  0.00000000E+00
  0.00000000E+00  0.00000000E+00  0.00000000E+00
  0.00000000E+00  0.00000000E+00  0.00000000E+00
  0.00000000E+00  0.00000000E+00  0.00000000E+00
  0.00000000E+00  0.00000000E+00  0.00000000E+00
  0.00000000E+00  0.00000000E+00  0.00000000E+00
  0.00000000E+00  0.00000000E+00  0.00000000E+00
  0.00000000E+00  0.00000000E+00  0.00000000E+00
  0.00000000E+00  0.00000000E+00  0.00000000E+00
  0.00000000E+00  0.00000000E+00  0.00000000E+00
  0.00000000E+00  0.00000000E+00  0.00000000E+00
  0.00000000E+00  0.00000000E+00  0.00000000E+00
  0.00000000E+00  0.00000000E+00  0.00000000E+00
  0.00000000E+00  0.00000000E+00  0.00000000E+00
  0.00000000E+00  0.00000000E+00  0.00000000E+00
  0.00000000E+00  0.00000000E+00  0.00000000E+00
  0.00000000E+00  0.00000000E+00  0.00000000E+00
  0.00000000E+00  0.00000000E+00  0.00000000E+00
  0.00000000E+00  0.00000000E+00  0.00000000E+00
  0.00000000E+00  0.00000000E+00  0.00000000E+00
  0.00000000E+00  0.00000000E+00  0.00000000E+00
  0.00000000E+00  0.00000000E+00  0.00000000E+00
  0.00000000E+00  0.00000000E+00  0.00000000E+00
  0.00000000E+00  0.00000000E+00  0.00000000E+00
  0.00000000E+00  0.00000000E+00  0.00000000E+00
  0.00000000E+00  0.00000000E+00  0.00000000E+00
  0.00000000E+00  0.00000000E+00  0.00000000E+00
  0.00000000E+00  0.00000000E+00  0.00000000E+00
  0.00000000E+00  0.00000000E+00  0.00000000E+00
  0.00000000E+00  0.00000000E+00  0.00000000E+00
  0.00000000E+00  0.00000000E+00  0.00000000E+00
  0.00000000E+00  0.00000000E+00  0.00000000E+00
  0.00000000E+00  0.00000000E+00  0.00000000E+00
  0.00000000E+00  0.00000000E+00  0.00000000E+00
