ba8 si16                                
   1.00000000000000     
    88.5640901164167502    0.0000000000000000    0.0642037564716821
     0.0000000000000000    6.7185900004072074    0.0000000000000000
     0.0085029844509522    0.0000000000000000   11.5077861402628443
   Ba   Si
    64   128
Direct
  0.0128561464702786  0.2500000000663931  0.7055923501933168
  0.1115772715425716  0.2500000000663931  0.6944650617629164
  0.2126744195055640  0.2500000000663931  0.6944570235880807
  0.3139990428067735  0.2500000000663931  0.6930163952516984
  0.4154502304448673  0.2500000000663931  0.6912968999417445
  0.5168823758184453  0.2500000000663931  0.6901041973116181
  0.6182431956796719  0.2500000000663931  0.6889581646737734
  0.7194155542128015  0.2500000000663931  0.6886931647800048
  0.1083206194159488  0.7500000176088264  0.3113068352458521
  0.2094929889050576  0.7500000176088264  0.3110418353520835
  0.3108538087662845  0.7500000176088264  0.3098958027142387
  0.4122859541398622  0.7500000176088264  0.3087031000841116
  0.5137371417779558  0.7500000176088264  0.3069836047741587
  0.6150617650791661  0.7500000176088264  0.3055429764377756
  0.7161589239981373  0.7500000176088264  0.3055349382629399
  0.8148800056025237  0.7500000176088264  0.2944076498325399
  0.0566508214331661  0.7500000176088264  0.1967056323109046
  0.1588014623195414  0.7500000176088264  0.1947561008509070
  0.2601400328541135  0.7500000176088264  0.1938259408559157
  0.3615811832634833  0.7500000176088264  0.1918514853984090
  0.4630234105536576  0.7500000176088264  0.1910075640626712
  0.5644143496388125  0.7500000176088264  0.1894641534909478
  0.6657287180398251  0.7500000176088264  0.1885748224107127
  0.7663910642117304  0.7500000176088264  0.1877992368164995
  0.0613451313174963  0.2500000000663931  0.8122007426097142
  0.1620074774894013  0.2500000000663931  0.8114251570155009
  0.2633218349459166  0.2500000000663931  0.8105358259352656
  0.3647127740310719  0.2500000000663931  0.8089924153635429
  0.4661550013212462  0.2500000000663931  0.8081484940277978
  0.5675961517306158  0.2500000000663931  0.8061740385702983
  0.6689347113206910  0.2500000000663931  0.8052438785753070
  0.7710853521955841  0.2500000000663931  0.8032943471153022
  0.0305840391939696  0.7500000176088264  0.9157727780839299
  0.1263363291604820  0.7500000176088264  0.9094173344405834
  0.2272244606643287  0.7500000176088264  0.9082861940003097
  0.3285852252173655  0.7500000176088264  0.9070040370801234
  0.4300384249213337  0.7500000176088264  0.9058768848081444
  0.5314655233064188  0.7500000176088264  0.9040316035920557
  0.6328856015392164  0.7500000176088264  0.9027286792925997
  0.7344388257076468  0.7500000176088264  0.9024066655271841
  0.0932973369766140  0.2500000000663931  0.0975933138990302
  0.1948505611335545  0.2500000000663931  0.0972713001336141
  0.2962706393778418  0.2500000000663931  0.0959683758341583
  0.3976977596633958  0.2500000000663931  0.0941230946180693
  0.4991509812678401  0.2500000000663931  0.0929959423460905
  0.6005117458208767  0.2500000000663931  0.0917137854259035
  0.7013998773362063  0.2500000000663931  0.0905826449856303
  0.7971521672912361  0.2500000000663931  0.0842272013422837
  0.0438271133974481  0.2500000000663931  0.3989626798484777
  0.1443073873892415  0.2500000000663931  0.4081406630305722
  0.2455498887764741  0.2500000000663931  0.4081410117096749
  0.3469431527279035  0.2500000000663931  0.4066316689060081
  0.4484437894752231  0.2500000000663931  0.4055951788647786
  0.5498151396684068  0.2500000000663931  0.4038835299464814
  0.6510925167117756  0.2500000000663931  0.4028255135472021
  0.7517152811185860  0.2500000000663931  0.4006026114082296
  0.0760208815541923  0.7500000176088264  0.5993974297307174
  0.1766436897734230  0.7500000176088264  0.5971745275917445
  0.2779210668167986  0.7500000176088264  0.5961165111924649
  0.3792923951095064  0.7500000176088264  0.5944048622741677
  0.4807930099448747  0.7500000176088264  0.5933683722329384
  0.5821862739077796  0.7500000176088264  0.5918590294292715
  0.6834287752950191  0.7500000176088264  0.5918593781083742
  0.7839090930877574  0.7500000176088264  0.6010373612904683
  0.0273556227461309  0.0720711936116130  0.1482706588502592
  0.1292623012135449  0.0707346216787963  0.1489662646044252
  0.2305747054392412  0.0705276326176826  0.1483031426415673
  0.3320415065594577  0.0704923783142831  0.1471389566375035
  0.4334077238502762  0.0704841482556618  0.1460709718657979
  0.5348494766805402  0.0704578189459456  0.1441838202611983
  0.6362063331154048  0.0704486516508595  0.1429348799208695
  0.7367343121549952  0.0701601898072632  0.1413827936370992
  0.0910018450512723  0.9298398013108601  0.8586171858753103
  0.1915298733698011  0.9295513394672639  0.8570650995915406
  0.2928867079041964  0.9295421721721775  0.8558161592512115
  0.3943284607344533  0.9295158428624619  0.8539290076466123
  0.4956946561248028  0.9295076128038400  0.8528610228749061
  0.5971614572335303  0.9294723585004410  0.8516968368708420
  0.6984738724152059  0.9292653694393270  0.8510337149079840
  0.8003805892170605  0.9279287975065104  0.8517293206621505
  0.0404289522391146  0.9280993966207830  0.6463431392802644
  0.1409795556238042  0.9294938662365999  0.6484880239242671
  0.2422167752758897  0.9293756724624651  0.6482869303017256
  0.3435609804605907  0.9294946102892866  0.6471747570658113
  0.4450647767539598  0.9294182501222171  0.6459619649768790
  0.5464893984618654  0.9295449604418721  0.6440385418269164
  0.6477925332907345  0.9295834922490693  0.6429425181062227
  0.7490092868834906  0.9301999233947688  0.6426410608007693
  0.0787268812672740  0.0698000677233539  0.3573589392250870
  0.1799436403380147  0.0704164988690543  0.3570574819196339
  0.2812467861228636  0.0704550306762508  0.3559614581989401
  0.3826714078307697  0.0705817409959062  0.3540380350489774
  0.4841752041241459  0.0705053808288365  0.3528252429600380
  0.5855194093088394  0.0706243186556586  0.3517130697241309
  0.6867566399054219  0.0705061248815232  0.3515119761015895
  0.7873072487681051  0.0719005944973412  0.3536568607455917
  0.0910018450512723  0.5701601986448731  0.8586171858753103
  0.1915298733698011  0.5704486604884693  0.8570650995915406
  0.2928867079041964  0.5704578277835557  0.8558161592512115
  0.3943284607344533  0.5704841570932713  0.8539290076466123
  0.4956946561248028  0.5704923871518932  0.8528610228749061
  0.5971614572335303  0.5705276414552922  0.8516968368708420
  0.6984738724152059  0.5707346305164062  0.8510337149079840
  0.8003805892170605  0.5720712024492228  0.8517293206621505
  0.0273556227461309  0.4279287975212687  0.1482706588502592
  0.1292623012135449  0.4292653694540850  0.1489662646044252
  0.2305747054392412  0.4294723585151989  0.1483031426415673
  0.3320415065594577  0.4295076128185984  0.1471389566375035
  0.4334077238502762  0.4295158428772198  0.1460709718657979
  0.5348494766805402  0.4295421721869359  0.1441838202611983
  0.6362063331154048  0.4295513394820221  0.1429348799208695
  0.7367343121549952  0.4298398013256184  0.1413827936370992
  0.0787268812672740  0.4301999234095278  0.3573589392250870
  0.1799436403380147  0.4295834922638272  0.3570574819196339
  0.2812467861228636  0.4295449604566308  0.3559614581989401
  0.3826714078307697  0.4294182501369826  0.3540380350489774
  0.4841752041241459  0.4294946103040449  0.3528252429600380
  0.5855194093088394  0.4293756724772229  0.3517130697241309
  0.6867566399054219  0.4294938662513583  0.3515119761015895
  0.7873072487681051  0.4280993966355403  0.3536568607455917
  0.0404289522391146  0.5719006033349502  0.6463431392802644
  0.1409795556238042  0.5705061337191333  0.6484880239242671
  0.2422167752758897  0.5706243274932681  0.6482869303017256
  0.3435609804605907  0.5705053896664466  0.6471747570658113
  0.4450647767539598  0.5705817498335161  0.6459619649768790
  0.5464893984618654  0.5704550395138611  0.6440385418269164
  0.6477925332907345  0.5704165077066639  0.6429425181062227
  0.7490092868834906  0.5698000765609644  0.6426410608007693
  0.0165167781675753  0.7500000176088264  0.6247970980292586
  0.1183061921491564  0.7500000176088264  0.5944045366836549
  0.2195258787445864  0.7500000176088264  0.5939059522352885
  0.3208692747657093  0.7500000176088264  0.5927358288808686
  0.4223839411052416  0.7500000176088264  0.5912132295968885
  0.5238153853071340  0.7500000176088264  0.5895295885441151
  0.6251192186439142  0.7500000176088264  0.5881296087847423
  0.7264071216660459  0.7500000176088264  0.5878593990107406
  0.1013290519627040  0.2500000000663931  0.4121406009289273
  0.2026169440288642  0.2500000000663931  0.4118703911549249
  0.3039207773771190  0.2500000000663931  0.4104704113955530
  0.4053522434794879  0.2500000000663931  0.4087867703427787
  0.5068669317194967  0.2500000000663931  0.4072641710587992
  0.6082103277406190  0.2500000000663931  0.4060940477043795
  0.7094300033915524  0.2500000000663931  0.4055954632560131
  0.8112194591298822  0.2500000000663931  0.3752029019104096
  0.0505040687249295  0.2500000000663931  0.0861806372831763
  0.1519868955988708  0.2500000000663931  0.0944827920246547
  0.2532584187006135  0.2500000000663931  0.0932098798814922
  0.3547134750635094  0.2500000000663931  0.0918349020877195
  0.4560735910075244  0.2500000000663931  0.0907686871556635
  0.5575290363498128  0.2500000000663931  0.0890371701852117
  0.6588791126008596  0.2500000000663931  0.0880401955589730
  0.7592430470175142  0.2500000000663931  0.0868234503021214
  0.0684931485231944  0.7500000176088264  0.9131765291240924
  0.1688570829283672  0.7500000176088264  0.9119597838672407
  0.2702071701468752  0.7500000176088264  0.9109628092410026
  0.3716625935772052  0.7500000176088264  0.9092312922705506
  0.4730226876092616  0.7500000176088264  0.9081650773384936
  0.5744777439721575  0.7500000176088264  0.9067900995447216
  0.6757492780413685  0.7500000176088264  0.9055171874015591
  0.7772321076370732  0.7500000176088264  0.9138193421430367
  0.0276483433674551  0.2500000000663931  0.9662084104545238
  0.1297144942312740  0.2500000000663931  0.9676888843531696
  0.2309348303036431  0.2500000000663931  0.9668698762579298
  0.3323884196050682  0.2500000000663931  0.9656590760898143
  0.4337686001767461  0.2500000000663931  0.9645275042686857
  0.5352065982429249  0.2500000000663931  0.9627552840942118
  0.6366157999838120  0.2500000000663931  0.9615434057749284
  0.7374990184743536  0.2500000000663931  0.9594776569048659
  0.0902371058754659  0.7500000176088264  0.0405223584629800
  0.1911203626889597  0.7500000176088264  0.0384566095929172
  0.2925295644413358  0.7500000176088264  0.0372447312736337
  0.3939675844079834  0.7500000176088264  0.0354725110991597
  0.4953477868801303  0.7500000176088264  0.0343409392780312
  0.5968013761815625  0.7500000176088264  0.0331301391099156
  0.6980217122654143  0.7500000176088264  0.0323111310146761
  0.8000879000855620  0.7500000176088264  0.0337916049133211
  0.0349738567882653  0.7500000176088264  0.4671351778731979
  0.1405924361655067  0.7500000176088264  0.4671598123619655
  0.2418070138243975  0.7500000176088264  0.4669063664185750
  0.3431842585098531  0.7500000176088264  0.4657337566220074
  0.4447035256185971  0.7500000176088264  0.4644541757573730
  0.5460963065026785  0.7500000176088264  0.4625466816093144
  0.6474241417070281  0.7500000176088264  0.4615316145490344
  0.7486593317982263  0.7500000176088264  0.4611259043566034
  0.0790768692089932  0.2500000000663931  0.5388740134430664
  0.1803120647781769  0.2500000000663931  0.5384683032506352
  0.2816398999825200  0.2500000000663931  0.5374532361903562
  0.3830326589661324  0.2500000000663931  0.5355457420422979
  0.4845519041629180  0.2500000000663931  0.5342661611776626
  0.5859291488598634  0.2500000000663931  0.5330935513810946
  0.6871437265187473  0.2500000000663931  0.5328401054377041
  0.7927623113624993  0.2500000000663931  0.5328647399264714
 
  0.00000000E+00  0.00000000E+00  0.00000000E+00
  0.00000000E+00  0.00000000E+00  0.00000000E+00
  0.00000000E+00  0.00000000E+00  0.00000000E+00
  0.00000000E+00  0.00000000E+00  0.00000000E+00
  0.00000000E+00  0.00000000E+00  0.00000000E+00
  0.00000000E+00  0.00000000E+00  0.00000000E+00
  0.00000000E+00  0.00000000E+00  0.00000000E+00
  0.00000000E+00  0.00000000E+00  0.00000000E+00
  0.00000000E+00  0.00000000E+00  0.00000000E+00
  0.00000000E+00  0.00000000E+00  0.00000000E+00
  0.00000000E+00  0.00000000E+00  0.00000000E+00
  0.00000000E+00  0.00000000E+00  0.00000000E+00
  0.00000000E+00  0.00000000E+00  0.00000000E+00
  0.00000000E+00  0.00000000E+00  0.00000000E+00
  0.00000000E+00  0.00000000E+00  0.00000000E+00
  0.00000000E+00  0.00000000E+00  0.00000000E+00
  0.00000000E+00  0.00000000E+00  0.00000000E+00
  0.00000000E+00  0.00000000E+00  0.00000000E+00
  0.00000000E+00  0.00000000E+00  0.00000000E+00
  0.00000000E+00  0.00000000E+00  0.00000000E+00
  0.00000000E+00  0.00000000E+00  0.00000000E+00
  0.00000000E+00  0.00000000E+00  0.00000000E+00
  0.00000000E+00  0.00000000E+00  0.00000000E+00
  0.00000000E+00  0.00000000E+00  0.00000000E+00
  0.00000000E+00  0.00000000E+00  0.00000000E+00
  0.00000000E+00  0.00000000E+00  0.00000000E+00
  0.00000000E+00  0.00000000E+00  0.00000000E+00
  0.00000000E+00  0.00000000E+00  0.00000000E+00
  0.00000000E+00  0.00000000E+00  0.00000000E+00
  0.00000000E+00  0.00000000E+00  0.00000000E+00
  0.00000000E+00  0.00000000E+00  0.00000000E+00
  0.00000000E+00  0.00000000E+00  0.00000000E+00
  0.00000000E+00  0.00000000E+00  0.00000000E+00
  0.00000000E+00  0.00000000E+00  0.00000000E+00
  0.00000000E+00  0.00000000E+00  0.00000000E+00
  0.00000000E+00  0.00000000E+00  0.00000000E+00
  0.00000000E+00  0.00000000E+00  0.00000000E+00
  0.00000000E+00  0.00000000E+00  0.00000000E+00
  0.00000000E+00  0.00000000E+00  0.00000000E+00
  0.00000000E+00  0.00000000E+00  0.00000000E+00
  0.00000000E+00  0.00000000E+00  0.00000000E+00
  0.00000000E+00  0.00000000E+00  0.00000000E+00
  0.00000000E+00  0.00000000E+00  0.00000000E+00
  0.00000000E+00  0.00000000E+00  0.00000000E+00
  0.00000000E+00  0.00000000E+00  0.00000000E+00
  0.00000000E+00  0.00000000E+00  0.00000000E+00
  0.00000000E+00  0.00000000E+00  0.00000000E+00
  0.00000000E+00  0.00000000E+00  0.00000000E+00
  0.00000000E+00  0.00000000E+00  0.00000000E+00
  0.00000000E+00  0.00000000E+00  0.00000000E+00
  0.00000000E+00  0.00000000E+00  0.00000000E+00
  0.00000000E+00  0.00000000E+00  0.00000000E+00
  0.00000000E+00  0.00000000E+00  0.00000000E+00
  0.00000000E+00  0.00000000E+00  0.00000000E+00
  0.00000000E+00  0.00000000E+00  0.00000000E+00
  0.00000000E+00  0.00000000E+00  0.00000000E+00
  0.00000000E+00  0.00000000E+00  0.00000000E+00
  0.00000000E+00  0.00000000E+00  0.00000000E+00
  0.00000000E+00  0.00000000E+00  0.00000000E+00
  0.00000000E+00  0.00000000E+00  0.00000000E+00
  0.00000000E+00  0.00000000E+00  0.00000000E+00
  0.00000000E+00  0.00000000E+00  0.00000000E+00
  0.00000000E+00  0.00000000E+00  0.00000000E+00
  0.00000000E+00  0.00000000E+00  0.00000000E+00
  0.00000000E+00  0.00000000E+00  0.00000000E+00
  0.00000000E+00  0.00000000E+00  0.00000000E+00
  0.00000000E+00  0.00000000E+00  0.00000000E+00
  0.00000000E+00  0.00000000E+00  0.00000000E+00
  0.00000000E+00  0.00000000E+00  0.00000000E+00
  0.00000000E+00  0.00000000E+00  0.00000000E+00
  0.00000000E+00  0.00000000E+00  0.00000000E+00
  0.00000000E+00  0.00000000E+00  0.00000000E+00
  0.00000000E+00  0.00000000E+00  0.00000000E+00
  0.00000000E+00  0.00000000E+00  0.00000000E+00
  0.00000000E+00  0.00000000E+00  0.00000000E+00
  0.00000000E+00  0.00000000E+00  0.00000000E+00
  0.00000000E+00  0.00000000E+00  0.00000000E+00
  0.00000000E+00  0.00000000E+00  0.00000000E+00
  0.00000000E+00  0.00000000E+00  0.00000000E+00
  0.00000000E+00  0.00000000E+00  0.00000000E+00
  0.00000000E+00  0.00000000E+00  0.00000000E+00
  0.00000000E+00  0.00000000E+00  0.00000000E+00
  0.00000000E+00  0.00000000E+00  0.00000000E+00
  0.00000000E+00  0.00000000E+00  0.00000000E+00
  0.00000000E+00  0.00000000E+00  0.00000000E+00
  0.00000000E+00  0.00000000E+00  0.00000000E+00
  0.00000000E+00  0.00000000E+00  0.00000000E+00
  0.00000000E+00  0.00000000E+00  0.00000000E+00
  0.00000000E+00  0.00000000E+00  0.00000000E+00
  0.00000000E+00  0.00000000E+00  0.00000000E+00
  0.00000000E+00  0.00000000E+00  0.00000000E+00
  0.00000000E+00  0.00000000E+00  0.00000000E+00
  0.00000000E+00  0.00000000E+00  0.00000000E+00
  0.00000000E+00  0.00000000E+00  0.00000000E+00
  0.00000000E+00  0.00000000E+00  0.00000000E+00
  0.00000000E+00  0.00000000E+00  0.00000000E+00
  0.00000000E+00  0.00000000E+00  0.00000000E+00
  0.00000000E+00  0.00000000E+00  0.00000000E+00
  0.00000000E+00  0.00000000E+00  0.00000000E+00
  0.00000000E+00  0.00000000E+00  0.00000000E+00
  0.00000000E+00  0.00000000E+00  0.00000000E+00
  0.00000000E+00  0.00000000E+00  0.00000000E+00
  0.00000000E+00  0.00000000E+00  0.00000000E+00
  0.00000000E+00  0.00000000E+00  0.00000000E+00
  0.00000000E+00  0.00000000E+00  0.00000000E+00
  0.00000000E+00  0.00000000E+00  0.00000000E+00
  0.00000000E+00  0.00000000E+00  0.00000000E+00
  0.00000000E+00  0.00000000E+00  0.00000000E+00
  0.00000000E+00  0.00000000E+00  0.00000000E+00
  0.00000000E+00  0.00000000E+00  0.00000000E+00
  0.00000000E+00  0.00000000E+00  0.00000000E+00
  0.00000000E+00  0.00000000E+00  0.00000000E+00
  0.00000000E+00  0.00000000E+00  0.00000000E+00
  0.00000000E+00  0.00000000E+00  0.00000000E+00
  0.00000000E+00  0.00000000E+00  0.00000000E+00
  0.00000000E+00  0.00000000E+00  0.00000000E+00
  0.00000000E+00  0.00000000E+00  0.00000000E+00
  0.00000000E+00  0.00000000E+00  0.00000000E+00
  0.00000000E+00  0.00000000E+00  0.00000000E+00
  0.00000000E+00  0.00000000E+00  0.00000000E+00
  0.00000000E+00  0.00000000E+00  0.00000000E+00
  0.00000000E+00  0.00000000E+00  0.00000000E+00
  0.00000000E+00  0.00000000E+00  0.00000000E+00
  0.00000000E+00  0.00000000E+00  0.00000000E+00
  0.00000000E+00  0.00000000E+00  0.00000000E+00
  0.00000000E+00  0.00000000E+00  0.00000000E+00
  0.00000000E+00  0.00000000E+00  0.00000000E+00
  0.00000000E+00  0.00000000E+00  0.00000000E+00
  0.00000000E+00  0.00000000E+00  0.00000000E+00
  0.00000000E+00  0.00000000E+00  0.00000000E+00
  0.00000000E+00  0.00000000E+00  0.00000000E+00
  0.00000000E+00  0.00000000E+00  0.00000000E+00
  0.00000000E+00  0.00000000E+00  0.00000000E+00
  0.00000000E+00  0.00000000E+00  0.00000000E+00
  0.00000000E+00  0.00000000E+00  0.00000000E+00
  0.00000000E+00  0.00000000E+00  0.00000000E+00
  0.00000000E+00  0.00000000E+00  0.00000000E+00
  0.00000000E+00  0.00000000E+00  0.00000000E+00
  0.00000000E+00  0.00000000E+00  0.00000000E+00
  0.00000000E+00  0.00000000E+00  0.00000000E+00
  0.00000000E+00  0.00000000E+00  0.00000000E+00
  0.00000000E+00  0.00000000E+00  0.00000000E+00
  0.00000000E+00  0.00000000E+00  0.00000000E+00
  0.00000000E+00  0.00000000E+00  0.00000000E+00
  0.00000000E+00  0.00000000E+00  0.00000000E+00
  0.00000000E+00  0.00000000E+00  0.00000000E+00
  0.00000000E+00  0.00000000E+00  0.00000000E+00
  0.00000000E+00  0.00000000E+00  0.00000000E+00
  0.00000000E+00  0.00000000E+00  0.00000000E+00
  0.00000000E+00  0.00000000E+00  0.00000000E+00
  0.00000000E+00  0.00000000E+00  0.00000000E+00
  0.00000000E+00  0.00000000E+00  0.00000000E+00
  0.00000000E+00  0.00000000E+00  0.00000000E+00
  0.00000000E+00  0.00000000E+00  0.00000000E+00
  0.00000000E+00  0.00000000E+00  0.00000000E+00
  0.00000000E+00  0.00000000E+00  0.00000000E+00
  0.00000000E+00  0.00000000E+00  0.00000000E+00
  0.00000000E+00  0.00000000E+00  0.00000000E+00
  0.00000000E+00  0.00000000E+00  0.00000000E+00
  0.00000000E+00  0.00000000E+00  0.00000000E+00
  0.00000000E+00  0.00000000E+00  0.00000000E+00
  0.00000000E+00  0.00000000E+00  0.00000000E+00
  0.00000000E+00  0.00000000E+00  0.00000000E+00
  0.00000000E+00  0.00000000E+00  0.00000000E+00
  0.00000000E+00  0.00000000E+00  0.00000000E+00
  0.00000000E+00  0.00000000E+00  0.00000000E+00
  0.00000000E+00  0.00000000E+00  0.00000000E+00
  0.00000000E+00  0.00000000E+00  0.00000000E+00
  0.00000000E+00  0.00000000E+00  0.00000000E+00
  0.00000000E+00  0.00000000E+00  0.00000000E+00
  0.00000000E+00  0.00000000E+00  0.00000000E+00
  0.00000000E+00  0.00000000E+00  0.00000000E+00
  0.00000000E+00  0.00000000E+00  0.00000000E+00
  0.00000000E+00  0.00000000E+00  0.00000000E+00
  0.00000000E+00  0.00000000E+00  0.00000000E+00
  0.00000000E+00  0.00000000E+00  0.00000000E+00
  0.00000000E+00  0.00000000E+00  0.00000000E+00
  0.00000000E+00  0.00000000E+00  0.00000000E+00
  0.00000000E+00  0.00000000E+00  0.00000000E+00
  0.00000000E+00  0.00000000E+00  0.00000000E+00
  0.00000000E+00  0.00000000E+00  0.00000000E+00
  0.00000000E+00  0.00000000E+00  0.00000000E+00
  0.00000000E+00  0.00000000E+00  0.00000000E+00
  0.00000000E+00  0.00000000E+00  0.00000000E+00
  0.00000000E+00  0.00000000E+00  0.00000000E+00
  0.00000000E+00  0.00000000E+00  0.00000000E+00
  0.00000000E+00  0.00000000E+00  0.00000000E+00
  0.00000000E+00  0.00000000E+00  0.00000000E+00
  0.00000000E+00  0.00000000E+00  0.00000000E+00
  0.00000000E+00  0.00000000E+00  0.00000000E+00
  0.00000000E+00  0.00000000E+00  0.00000000E+00
  0.00000000E+00  0.00000000E+00  0.00000000E+00
