ba8 si16                                
   1.00000000000000     
    41.9226199243527304    0.0093476606568024    0.0084461914432881
     0.0014833940450715    6.6683487381890965   -0.0001689322305554
     0.0022924444147474   -0.0002891580741054   11.4304545949887526
   Ba   Si
    24    48
Direct
  0.0086095369673350  0.2583701884153504  0.7081330617669419
  0.2182878695198585  0.2579016743310824  0.6978557981537717
  0.4319054946388108  0.2579828698799649  0.6986249623334375
  0.2111930402795620  0.7580847900899338  0.3169150833842689
  0.4248106200244346  0.7581659856388164  0.3176842475639348
  0.6344889532907624  0.7576974715545485  0.3074069839507647
  0.1018268138199118  0.7585388291638366  0.2003164574593536
  0.3180872341413645  0.7581182997015307  0.1982553585946896
  0.5314636496424900  0.7581917840316402  0.1990977133121664
  0.1116348852758757  0.2578758759382586  0.8164423114857692
  0.3250113234759355  0.2579493602683683  0.8172846662032460
  0.5412717210984612  0.2575288308060621  0.8152235673385823
  0.0468576908006274  0.7584611493987461  0.9196471885078898
  0.2492401694241730  0.7574909282591656  0.9137912621570896
  0.4635127255534464  0.7584061180221915  0.9142198174882457
  0.1795858207381790  0.2576615419477075  0.1013202073096973
  0.3938583428190546  0.2585767317107332  0.1017487626408533
  0.5962408214426003  0.2576065105711528  0.0958928362900531
  0.0748883821815372  0.2581460046594945  0.4029703762495498
  0.2874113409225443  0.2580818462037063  0.4129992098798818
  0.5005733978667640  0.2579198053703283  0.4122292104654694
  0.1425251143764635  0.7581478545995706  0.6033108770042259
  0.3556871940196176  0.7579858137661927  0.6025408775898133
  0.5682101300378870  0.7579216553104046  0.6125697112201454
  0.0393661111985626  0.0794837553360275  0.1537451973823679
  0.2554121251484835  0.0777397451264566  0.1542215468298758
  0.4683787279080684  0.0778145445398980  0.1535975819211580
  0.1747198070341006  0.9382530884461954  0.8619424429643167
  0.3876864097698893  0.9383278878596367  0.8613184780555988
  0.6037324123941356  0.9365838776500660  0.8617948275031067
  0.0673338367434663  0.9375585624627604  0.6490289970188102
  0.2805899334573820  0.9387322064277199  0.6537170978125434
  0.4944834455043289  0.9389581148774321  0.6547304908749785
  0.1486150780645733  0.0771095181086614  0.3608095548427281
  0.3625086014847799  0.0773354265583733  0.3618229479051635
  0.5757646641502906  0.0785090705233331  0.3665110486988963
  0.1746419839091504  0.5763410524298110  0.8620756014653025
  0.3877241156046133  0.5772870400865492  0.8615772082524613
  0.6036356457005403  0.5778563753504559  0.8621527417397437
  0.0394628778921580  0.4382112666302415  0.1533872831457310
  0.2553744193137595  0.4387806018941483  0.1539628166330132
  0.4684565510330184  0.4397265895508867  0.1534644234201722
  0.1485760764616262  0.4395881985130481  0.3607035785652520
  0.3624674389003188  0.4385059002737497  0.3617573711123578
  0.5757396005087684  0.4372955213212854  0.3663357052776818
  0.0673589003849885  0.5787721206594120  0.6492043404400247
  0.2806310960418431  0.5775617417069479  0.6537826746053486
  0.4945224471072760  0.5764794434676495  0.6548364671524546
  0.0169060699874341  0.7583406803762636  0.6260006763047015
  0.2326906993523718  0.7578859530936728  0.5997457488952671
  0.4467594967429621  0.7577685883624231  0.5999404527498703
  0.1963389928013382  0.2582990716074756  0.4155995928803045
  0.4104077901919287  0.2581817068762259  0.4157942967349077
  0.6261924606957062  0.2577269795936353  0.3895393693254663
  0.0882401982573303  0.2580994232068250  0.0902194661353721
  0.3033549217949751  0.2581841077458090  0.0998699511627817
  0.5159643726909535  0.2580348110818573  0.0988551771094354
  0.1271341622512015  0.7580328488880415  0.9166848476885004
  0.3397435904482524  0.7578835522240898  0.9156700736351540
  0.5548583366848315  0.7579682367630739  0.9253205586625636
  0.0397650687915524  0.2582011006357712  0.9704489167121222
  0.2563319998999057  0.2576037365788753  0.9718914508014920
  0.4700850251761241  0.2585650959624705  0.9704604842415632
  0.1730135097422418  0.7575025640074283  0.0450795770565480
  0.3867665577411904  0.7584639233910234  0.0436486104966191
  0.6033334746448707  0.7578665593341277  0.0450911445859888
  0.0561580176477652  0.7578172358504502  0.4686931909964209
  0.2796860171665483  0.7579863038390640  0.4714751078262128
  0.4937133286442800  0.7576067035143058  0.4722497663826116
  0.1493852176235635  0.2584609564555929  0.5432901958311035
  0.3634124950766793  0.2580813561308348  0.5440648543875025
  0.5869405059211370  0.2582504241194485  0.5468467712172944
 
  0.00000000E+00  0.00000000E+00  0.00000000E+00
  0.00000000E+00  0.00000000E+00  0.00000000E+00
  0.00000000E+00  0.00000000E+00  0.00000000E+00
  0.00000000E+00  0.00000000E+00  0.00000000E+00
  0.00000000E+00  0.00000000E+00  0.00000000E+00
  0.00000000E+00  0.00000000E+00  0.00000000E+00
  0.00000000E+00  0.00000000E+00  0.00000000E+00
  0.00000000E+00  0.00000000E+00  0.00000000E+00
  0.00000000E+00  0.00000000E+00  0.00000000E+00
  0.00000000E+00  0.00000000E+00  0.00000000E+00
  0.00000000E+00  0.00000000E+00  0.00000000E+00
  0.00000000E+00  0.00000000E+00  0.00000000E+00
  0.00000000E+00  0.00000000E+00  0.00000000E+00
  0.00000000E+00  0.00000000E+00  0.00000000E+00
  0.00000000E+00  0.00000000E+00  0.00000000E+00
  0.00000000E+00  0.00000000E+00  0.00000000E+00
  0.00000000E+00  0.00000000E+00  0.00000000E+00
  0.00000000E+00  0.00000000E+00  0.00000000E+00
  0.00000000E+00  0.00000000E+00  0.00000000E+00
  0.00000000E+00  0.00000000E+00  0.00000000E+00
  0.00000000E+00  0.00000000E+00  0.00000000E+00
  0.00000000E+00  0.00000000E+00  0.00000000E+00
  0.00000000E+00  0.00000000E+00  0.00000000E+00
  0.00000000E+00  0.00000000E+00  0.00000000E+00
  0.00000000E+00  0.00000000E+00  0.00000000E+00
  0.00000000E+00  0.00000000E+00  0.00000000E+00
  0.00000000E+00  0.00000000E+00  0.00000000E+00
  0.00000000E+00  0.00000000E+00  0.00000000E+00
  0.00000000E+00  0.00000000E+00  0.00000000E+00
  0.00000000E+00  0.00000000E+00  0.00000000E+00
  0.00000000E+00  0.00000000E+00  0.00000000E+00
  0.00000000E+00  0.00000000E+00  0.00000000E+00
  0.00000000E+00  0.00000000E+00  0.00000000E+00
  0.00000000E+00  0.00000000E+00  0.00000000E+00
  0.00000000E+00  0.00000000E+00  0.00000000E+00
  0.00000000E+00  0.00000000E+00  0.00000000E+00
  0.00000000E+00  0.00000000E+00  0.00000000E+00
  0.00000000E+00  0.00000000E+00  0.00000000E+00
  0.00000000E+00  0.00000000E+00  0.00000000E+00
  0.00000000E+00  0.00000000E+00  0.00000000E+00
  0.00000000E+00  0.00000000E+00  0.00000000E+00
  0.00000000E+00  0.00000000E+00  0.00000000E+00
  0.00000000E+00  0.00000000E+00  0.00000000E+00
  0.00000000E+00  0.00000000E+00  0.00000000E+00
  0.00000000E+00  0.00000000E+00  0.00000000E+00
  0.00000000E+00  0.00000000E+00  0.00000000E+00
  0.00000000E+00  0.00000000E+00  0.00000000E+00
  0.00000000E+00  0.00000000E+00  0.00000000E+00
  0.00000000E+00  0.00000000E+00  0.00000000E+00
  0.00000000E+00  0.00000000E+00  0.00000000E+00
  0.00000000E+00  0.00000000E+00  0.00000000E+00
  0.00000000E+00  0.00000000E+00  0.00000000E+00
  0.00000000E+00  0.00000000E+00  0.00000000E+00
  0.00000000E+00  0.00000000E+00  0.00000000E+00
  0.00000000E+00  0.00000000E+00  0.00000000E+00
  0.00000000E+00  0.00000000E+00  0.00000000E+00
  0.00000000E+00  0.00000000E+00  0.00000000E+00
  0.00000000E+00  0.00000000E+00  0.00000000E+00
  0.00000000E+00  0.00000000E+00  0.00000000E+00
  0.00000000E+00  0.00000000E+00  0.00000000E+00
  0.00000000E+00  0.00000000E+00  0.00000000E+00
  0.00000000E+00  0.00000000E+00  0.00000000E+00
  0.00000000E+00  0.00000000E+00  0.00000000E+00
  0.00000000E+00  0.00000000E+00  0.00000000E+00
  0.00000000E+00  0.00000000E+00  0.00000000E+00
  0.00000000E+00  0.00000000E+00  0.00000000E+00
  0.00000000E+00  0.00000000E+00  0.00000000E+00
  0.00000000E+00  0.00000000E+00  0.00000000E+00
  0.00000000E+00  0.00000000E+00  0.00000000E+00
  0.00000000E+00  0.00000000E+00  0.00000000E+00
  0.00000000E+00  0.00000000E+00  0.00000000E+00
  0.00000000E+00  0.00000000E+00  0.00000000E+00
