ba8 si16                                
   1.00000000000000     
    41.8134603695442237    0.0000000000000000   -0.0004140426695039
     0.0000000000000000    6.6710583748746206    0.0000000000000000
    -0.0006954376754283    0.0000000000000000   11.4251791273968415
   Ba   Si
    24    48
Direct
  0.0077446170667942  0.2500000000663931  0.6998253809968519
  0.2180070683621827  0.2500000000663931  0.6901486848849989
  0.4321997983180159  0.2500000000663931  0.6912199124838200
  0.2108987366003570  0.7500000176088264  0.3087800875420364
  0.4250914211821103  0.7500000176088264  0.3098513151408577
  0.6353538731913030  0.7500000176088264  0.3001746190290048
  0.1012562628195650  0.7500000176088264  0.1922659676482484
  0.3180651316114553  0.7500000176088264  0.1905165706699488
  0.5320420693598160  0.7500000176088264  0.1914808214932064
  0.1110564655585496  0.2500000000663931  0.8085191579330072
  0.3250334260058448  0.2500000000663931  0.8094834087562648
  0.5418422720988080  0.2500000000663931  0.8077340117779652
  0.0460661997208605  0.7500000176088264  0.9117210061325860
  0.2490991483701751  0.7500000176088264  0.9060330512301669
  0.4639560908442455  0.7500000176088264  0.9068974369117858
  0.1791424554473798  0.2500000000663931  0.0931025425144280
  0.3939993638730523  0.2500000000663931  0.0939669281960465
  0.5970323125223669  0.2500000000663931  0.0882789732936275
  0.0742340635322691  0.2500000000663931  0.3951862000482319
  0.2872764518963180  0.2500000000663931  0.4053112438487603
  0.5010758170184163  0.2500000000663931  0.4050052875712801
  0.1420226952248111  0.7500000176088264  0.5949947535676658
  0.3558220830458439  0.7500000176088264  0.5946887972901864
  0.5688644486871623  0.7500000176088264  0.6048138410907142
  0.0385600672528846  0.0707163638874591  0.1456826059635493
  0.2551442892538026  0.0696367883419604  0.1463885370034855
  0.4687812750085869  0.0692652684657728  0.1459420498967492
  0.1743172599335821  0.9307347226523506  0.8540579296156605
  0.3879542456645703  0.9303632027761630  0.8536114425089244
  0.6045384563398136  0.9292836272306644  0.8543173735488607
  0.0666621471529353  0.9293465058536244  0.6413590280886545
  0.2804789120568850  0.9304504517412768  0.6461563375246896
  0.4949662710604936  0.9310495643269258  0.6473820098145051
  0.1481322525084088  0.0689504267911976  0.3526179902113516
  0.3626196228852768  0.0695495393768468  0.3538436625011670
  0.5764363537408215  0.0706534852644993  0.3586409719372017
  0.1743172599335821  0.5692652773033826  0.8540579296156605
  0.3879542456645703  0.5696367971795702  0.8536114425089244
  0.6045384563398136  0.5707163727250688  0.8543173735488607
  0.0385600672528846  0.4292836272454222  0.1456826059635493
  0.2551442892538026  0.4303632027909211  0.1463885370034855
  0.4687812750085869  0.4307347226671085  0.1459420498967492
  0.1481322525084088  0.4310495643416836  0.3526179902113516
  0.3626196228852768  0.4304504517560345  0.3538436625011670
  0.5764363537408215  0.4293465058683820  0.3586409719372017
  0.0666621471529353  0.5706534941021087  0.6413590280886545
  0.2804789120568850  0.5695495482144564  0.6461563375246896
  0.4949662710604936  0.5689504356288074  0.6473820098145051
  0.0161446250911776  0.7500000176088264  0.6171139646036904
  0.2324387473311423  0.7500000176088264  0.5916292483542022
  0.4470820995015629  0.7500000176088264  0.5923934170226828
  0.1960163900427375  0.2500000000663931  0.4076065829169849
  0.4106597422131580  0.2500000000663931  0.4083707515854656
  0.6269539055919625  0.2500000000663931  0.3828860353359775
  0.0875100692234836  0.2500000000663931  0.0825003204110118
  0.3032529010740277  0.2500000000663931  0.0922375686503425
  0.5164976103657153  0.2500000000663931  0.0915626831841708
  0.1266009245764467  0.7500000176088264  0.9084372962420428
  0.3398456111691998  0.7500000176088264  0.9077624107758715
  0.5555884657186783  0.7500000176088264  0.9174996590152016
  0.0389423175846313  0.2500000000663931  0.9623371424896545
  0.2561671582932344  0.2500000000663931  0.9640052519527725
  0.4705179944452821  0.2500000000663931  0.9627538006585459
  0.1725805404730836  0.7500000176088264  0.0372462147092996
  0.3869313993478617  0.7500000176088264  0.0359947634150732
  0.6041562258517915  0.7500000176088264  0.0376628728781912
  0.0557831816892185  0.7500000176088264  0.4606814724162261
  0.2795941213481304  0.7500000176088264  0.4636744278726005
  0.4941178467203631  0.7500000176088264  0.4646466142297007
  0.1489806995474805  0.2500000000663931  0.5353533035699694
  0.3635043908950972  0.2500000000663931  0.5363254899270696
  0.5873153418796839  0.2500000000663931  0.5393184453834432
 
  0.00000000E+00  0.00000000E+00  0.00000000E+00
  0.00000000E+00  0.00000000E+00  0.00000000E+00
  0.00000000E+00  0.00000000E+00  0.00000000E+00
  0.00000000E+00  0.00000000E+00  0.00000000E+00
  0.00000000E+00  0.00000000E+00  0.00000000E+00
  0.00000000E+00  0.00000000E+00  0.00000000E+00
  0.00000000E+00  0.00000000E+00  0.00000000E+00
  0.00000000E+00  0.00000000E+00  0.00000000E+00
  0.00000000E+00  0.00000000E+00  0.00000000E+00
  0.00000000E+00  0.00000000E+00  0.00000000E+00
  0.00000000E+00  0.00000000E+00  0.00000000E+00
  0.00000000E+00  0.00000000E+00  0.00000000E+00
  0.00000000E+00  0.00000000E+00  0.00000000E+00
  0.00000000E+00  0.00000000E+00  0.00000000E+00
  0.00000000E+00  0.00000000E+00  0.00000000E+00
  0.00000000E+00  0.00000000E+00  0.00000000E+00
  0.00000000E+00  0.00000000E+00  0.00000000E+00
  0.00000000E+00  0.00000000E+00  0.00000000E+00
  0.00000000E+00  0.00000000E+00  0.00000000E+00
  0.00000000E+00  0.00000000E+00  0.00000000E+00
  0.00000000E+00  0.00000000E+00  0.00000000E+00
  0.00000000E+00  0.00000000E+00  0.00000000E+00
  0.00000000E+00  0.00000000E+00  0.00000000E+00
  0.00000000E+00  0.00000000E+00  0.00000000E+00
  0.00000000E+00  0.00000000E+00  0.00000000E+00
  0.00000000E+00  0.00000000E+00  0.00000000E+00
  0.00000000E+00  0.00000000E+00  0.00000000E+00
  0.00000000E+00  0.00000000E+00  0.00000000E+00
  0.00000000E+00  0.00000000E+00  0.00000000E+00
  0.00000000E+00  0.00000000E+00  0.00000000E+00
  0.00000000E+00  0.00000000E+00  0.00000000E+00
  0.00000000E+00  0.00000000E+00  0.00000000E+00
  0.00000000E+00  0.00000000E+00  0.00000000E+00
  0.00000000E+00  0.00000000E+00  0.00000000E+00
  0.00000000E+00  0.00000000E+00  0.00000000E+00
  0.00000000E+00  0.00000000E+00  0.00000000E+00
  0.00000000E+00  0.00000000E+00  0.00000000E+00
  0.00000000E+00  0.00000000E+00  0.00000000E+00
  0.00000000E+00  0.00000000E+00  0.00000000E+00
  0.00000000E+00  0.00000000E+00  0.00000000E+00
  0.00000000E+00  0.00000000E+00  0.00000000E+00
  0.00000000E+00  0.00000000E+00  0.00000000E+00
  0.00000000E+00  0.00000000E+00  0.00000000E+00
  0.00000000E+00  0.00000000E+00  0.00000000E+00
  0.00000000E+00  0.00000000E+00  0.00000000E+00
  0.00000000E+00  0.00000000E+00  0.00000000E+00
  0.00000000E+00  0.00000000E+00  0.00000000E+00
  0.00000000E+00  0.00000000E+00  0.00000000E+00
  0.00000000E+00  0.00000000E+00  0.00000000E+00
  0.00000000E+00  0.00000000E+00  0.00000000E+00
  0.00000000E+00  0.00000000E+00  0.00000000E+00
  0.00000000E+00  0.00000000E+00  0.00000000E+00
  0.00000000E+00  0.00000000E+00  0.00000000E+00
  0.00000000E+00  0.00000000E+00  0.00000000E+00
  0.00000000E+00  0.00000000E+00  0.00000000E+00
  0.00000000E+00  0.00000000E+00  0.00000000E+00
  0.00000000E+00  0.00000000E+00  0.00000000E+00
  0.00000000E+00  0.00000000E+00  0.00000000E+00
  0.00000000E+00  0.00000000E+00  0.00000000E+00
  0.00000000E+00  0.00000000E+00  0.00000000E+00
  0.00000000E+00  0.00000000E+00  0.00000000E+00
  0.00000000E+00  0.00000000E+00  0.00000000E+00
  0.00000000E+00  0.00000000E+00  0.00000000E+00
  0.00000000E+00  0.00000000E+00  0.00000000E+00
  0.00000000E+00  0.00000000E+00  0.00000000E+00
  0.00000000E+00  0.00000000E+00  0.00000000E+00
  0.00000000E+00  0.00000000E+00  0.00000000E+00
  0.00000000E+00  0.00000000E+00  0.00000000E+00
  0.00000000E+00  0.00000000E+00  0.00000000E+00
  0.00000000E+00  0.00000000E+00  0.00000000E+00
  0.00000000E+00  0.00000000E+00  0.00000000E+00
  0.00000000E+00  0.00000000E+00  0.00000000E+00
