ba8 si16                                
   1.00000000000000     
    24.0094680786000012    0.0000000000000000    0.0000000000000000
     0.0000000000000000    6.7778496741999996    0.0000000000000000
     0.0000000000000000    0.0000000000000000   11.6021432877000006
   Ba   Si
     8    16
Selective dynamics
Direct
  0.0056936146836932  0.2500000000663931  0.7062875186582022   F   T   T
  0.3695528538555379  0.7500000176088264  0.2937124813676546   F   T   T
  0.1819296202106742  0.7500000176088264  0.1873457832714814   F   T   T
  0.1933168470790463  0.2500000000663931  0.8126541961547327   F   T   T
  0.0597801408303269  0.7500000176088264  0.9188825243946891   F   T   T
  0.3154663265010456  0.2500000000663931  0.0811174550315251   F   T   T
  0.1278430928145298  0.2500000000663931  0.3999154651257556   F   T   T
  0.2474033744751907  0.7500000176088264  0.6000845760131909   F   T   T
  0.0728991332615152  0.0720041730289639  0.1470153670456825   F   T   T
  0.3023473340698573  0.9279958180891598  0.8529846124667273   F   T   T
  0.1147241003833415  0.9285021156195085  0.6579253263097290   F   T   T
  0.2605223669063790  0.0714978754986146  0.3420746737161269   F   T   T
  0.3023473340698573  0.5720041818665734  0.8529846124667273   F   T   T
  0.0728991332615152  0.4279958181039176  0.1470153670456825   F   T   T
  0.2605223669063790  0.4285021156342667  0.3420746737161269   F   T   T
  0.1147241003833415  0.5714978843362247  0.6579253263097290   F   T   T
  0.0311098080788312  0.7500000176088264  0.5989839816500495   F   T   T
  0.3441366517971503  0.2500000000663931  0.4010160182896183   F   T   T
  0.1565134280650469  0.2500000000663931  0.0869206617940213   F   T   T
  0.2187330491790789  0.7500000176088264  0.9130793176321930   F   T   T
  0.0741839757202953  0.2500000000663931  0.9646314515754396   F   T   T
  0.3010624866547005  0.7500000176088264  0.0353685637924062   F   T   T
  0.1134392529681918  0.7500000176088264  0.4753937229971490   F   T   T
  0.2618072143215286  0.2500000000663931  0.5246061948025209   F   T   T
 
  0.00000000E+00  0.00000000E+00  0.00000000E+00
  0.00000000E+00  0.00000000E+00  0.00000000E+00
  0.00000000E+00  0.00000000E+00  0.00000000E+00
  0.00000000E+00  0.00000000E+00  0.00000000E+00
  0.00000000E+00  0.00000000E+00  0.00000000E+00
  0.00000000E+00  0.00000000E+00  0.00000000E+00
  0.00000000E+00  0.00000000E+00  0.00000000E+00
  0.00000000E+00  0.00000000E+00  0.00000000E+00
  0.00000000E+00  0.00000000E+00  0.00000000E+00
  0.00000000E+00  0.00000000E+00  0.00000000E+00
  0.00000000E+00  0.00000000E+00  0.00000000E+00
  0.00000000E+00  0.00000000E+00  0.00000000E+00
  0.00000000E+00  0.00000000E+00  0.00000000E+00
  0.00000000E+00  0.00000000E+00  0.00000000E+00
  0.00000000E+00  0.00000000E+00  0.00000000E+00
  0.00000000E+00  0.00000000E+00  0.00000000E+00
  0.00000000E+00  0.00000000E+00  0.00000000E+00
  0.00000000E+00  0.00000000E+00  0.00000000E+00
  0.00000000E+00  0.00000000E+00  0.00000000E+00
  0.00000000E+00  0.00000000E+00  0.00000000E+00
  0.00000000E+00  0.00000000E+00  0.00000000E+00
  0.00000000E+00  0.00000000E+00  0.00000000E+00
  0.00000000E+00  0.00000000E+00  0.00000000E+00
  0.00000000E+00  0.00000000E+00  0.00000000E+00
