ba8 si16                                
   1.00000000000000     
    23.9260665140811248    0.0000000000000000    0.0000000000000000
     0.0000000000000000    6.7201943514092548    0.0000000000000000
     0.0000000000000000    0.0000000000000000   11.5031858028826566
   Ba   Si
     8    16
Selective dynamics
Direct
  0.0150598903371915  0.2500000000663931  0.6120114864656325   F   T   T
  0.9849401129260400  0.7500000176088264  0.3879885135602241   F   T   T
  0.4849401129593360  0.7500000176088264  0.1120114247399678   F   T   T
  0.5150598869740648  0.2500000000663931  0.8879885546862458   F   T   T
  0.1592031033120662  0.7500000176088264  0.8297185975101957   F   T   T
  0.8407968967323356  0.2500000000663931  0.1702813819160180   F   T   T
  0.3407968966546377  0.2500000000663931  0.3297186797234508   F   T   T
  0.6592031032787631  0.7500000176088264  0.6702813614154959   F   T   T
  0.1936433925869778  0.0806839231046813  0.0336463388740553   F   T   T
  0.8063566074574169  0.9193160680134417  0.9663536406383545   F   T   T
  0.3063566073797190  0.9193160680134417  0.5336463594004340   F   T   T
  0.6936433925536818  0.0806839231046814  0.4663536406254226   F   T   T
  0.8063566074574169  0.5806839319422915  0.9663536406383545   F   T   T
  0.1936433925869778  0.4193160680282000  0.0336463388740552   F   T   T
  0.6936433925536818  0.4193160680282001  0.4663536406254226   F   T   T
  0.3063566073797190  0.5806839319422915  0.5336463594004340   F   T   T
  0.0817142183791830  0.7500000176088264  0.5910826615103861   F   T   T
  0.9182857617972289  0.2500000000663931  0.4089173384292815   F   T   T
  0.4182857882471822  0.2500000000663931  0.0910825998709108   F   T   T
  0.5817142382138698  0.7500000176088264  0.9089173795553034   F   T   T
  0.1971453259959475  0.2500000000663931  0.8552086470036541   F   T   T
  0.8028546608401257  0.7500000176088264  0.1447913683641916   F   T   T
  0.3028546607624278  0.7500000176088264  0.3552085648507312   F   T   T
  0.6971453391709730  0.2500000000663931  0.6447913529489385   F   T   T
 
  0.00000000E+00  0.00000000E+00  0.00000000E+00
  0.00000000E+00  0.00000000E+00  0.00000000E+00
  0.00000000E+00  0.00000000E+00  0.00000000E+00
  0.00000000E+00  0.00000000E+00  0.00000000E+00
  0.00000000E+00  0.00000000E+00  0.00000000E+00
  0.00000000E+00  0.00000000E+00  0.00000000E+00
  0.00000000E+00  0.00000000E+00  0.00000000E+00
  0.00000000E+00  0.00000000E+00  0.00000000E+00
  0.00000000E+00  0.00000000E+00  0.00000000E+00
  0.00000000E+00  0.00000000E+00  0.00000000E+00
  0.00000000E+00  0.00000000E+00  0.00000000E+00
  0.00000000E+00  0.00000000E+00  0.00000000E+00
  0.00000000E+00  0.00000000E+00  0.00000000E+00
  0.00000000E+00  0.00000000E+00  0.00000000E+00
  0.00000000E+00  0.00000000E+00  0.00000000E+00
  0.00000000E+00  0.00000000E+00  0.00000000E+00
  0.00000000E+00  0.00000000E+00  0.00000000E+00
  0.00000000E+00  0.00000000E+00  0.00000000E+00
  0.00000000E+00  0.00000000E+00  0.00000000E+00
  0.00000000E+00  0.00000000E+00  0.00000000E+00
  0.00000000E+00  0.00000000E+00  0.00000000E+00
  0.00000000E+00  0.00000000E+00  0.00000000E+00
  0.00000000E+00  0.00000000E+00  0.00000000E+00
  0.00000000E+00  0.00000000E+00  0.00000000E+00
