sr8 si16                                
   1.00000000000000     
     8.5685933117022142    0.0000000000000000    0.0000000000000000
     0.0000000000000000    6.4217285864534137    0.0000000000000000
     0.0000000000000000    0.0000000000000000   11.0131256537548303
   Sr   Si
     8    16
Direct
  0.0151109420342862  0.2500000000663931  0.6922868594419229
  0.9848890612289453  0.7500000176088264  0.3077131405839337
  0.4848890612622413  0.7500000176088264  0.1922867977162584
  0.5151109386711595  0.2500000000663931  0.8077131817099554
  0.1581257065140023  0.7500000176088264  0.9067273315273854
  0.8418742935303996  0.2500000000663931  0.0932726478988284
  0.3418742934527016  0.2500000000663931  0.4067274137406403
  0.6581257064806991  0.7500000176088264  0.5932726273983062
  0.1921408204988029  0.0622013528133511  0.1492599574956006
  0.8078591795455918  0.9377986383047723  0.8507400220168092
  0.3078591794678939  0.9377986383047723  0.6492599780219793
  0.6921408204655068  0.0622013528133511  0.3507400220038773
  0.8078591795455918  0.5622013616509609  0.8507400220168092
  0.1921408204988029  0.4377986383195303  0.1492599574956006
  0.6921408204655068  0.4377986383195303  0.3507400220038773
  0.3078591794678939  0.5622013616509609  0.6492599780219793
  0.0736670984100653  0.7500000176088264  0.5912479725603479
  0.9263328817663466  0.2500000000663931  0.4087520273793199
  0.4263329082162999  0.2500000000663931  0.0912479109208721
  0.5736671182447520  0.7500000176088264  0.9087520685053416
  0.1957469292983862  0.2500000000663931  0.9597117043161089
  0.8042530575376871  0.7500000176088264  0.0402883110517368
  0.3042530574599892  0.7500000176088264  0.4597116221631862
  0.6957469424734116  0.2500000000663931  0.5402882956364837
 
  0.00000000E+00  0.00000000E+00  0.00000000E+00
  0.00000000E+00  0.00000000E+00  0.00000000E+00
  0.00000000E+00  0.00000000E+00  0.00000000E+00
  0.00000000E+00  0.00000000E+00  0.00000000E+00
  0.00000000E+00  0.00000000E+00  0.00000000E+00
  0.00000000E+00  0.00000000E+00  0.00000000E+00
  0.00000000E+00  0.00000000E+00  0.00000000E+00
  0.00000000E+00  0.00000000E+00  0.00000000E+00
  0.00000000E+00  0.00000000E+00  0.00000000E+00
  0.00000000E+00  0.00000000E+00  0.00000000E+00
  0.00000000E+00  0.00000000E+00  0.00000000E+00
  0.00000000E+00  0.00000000E+00  0.00000000E+00
  0.00000000E+00  0.00000000E+00  0.00000000E+00
  0.00000000E+00  0.00000000E+00  0.00000000E+00
  0.00000000E+00  0.00000000E+00  0.00000000E+00
  0.00000000E+00  0.00000000E+00  0.00000000E+00
  0.00000000E+00  0.00000000E+00  0.00000000E+00
  0.00000000E+00  0.00000000E+00  0.00000000E+00
  0.00000000E+00  0.00000000E+00  0.00000000E+00
  0.00000000E+00  0.00000000E+00  0.00000000E+00
  0.00000000E+00  0.00000000E+00  0.00000000E+00
  0.00000000E+00  0.00000000E+00  0.00000000E+00
  0.00000000E+00  0.00000000E+00  0.00000000E+00
  0.00000000E+00  0.00000000E+00  0.00000000E+00
