ba8 si16                                
   1.00000000000000     
    22.6094680786000026    0.0000000000000000    0.0000000000000000
     0.0000000000000000    6.7778496741999996    0.0000000000000000
     0.0000000000000000    0.0000000000000000   11.6021432877000006
   Ba   Si
     8    16
Selective dynamics
Direct
  0.0056936146836932  0.2500000000663931  0.7050367258031391   F   T   T
  0.3695528538555379  0.7500000176088264  0.2949632742227173   F   T   T
  0.1819296202106742  0.7500000176088264  0.1880416234887737   F   T   T
  0.1933168470790463  0.2500000000663931  0.8119583559374398   F   T   T
  0.0597801408303269  0.7500000176088264  0.9184594944688125   F   T   T
  0.3154663265010456  0.2500000000663931  0.0815404849574013   F   T   T
  0.1278430928145298  0.2500000000663931  0.3996451191125545   F   T   T
  0.2474033744751907  0.7500000176088264  0.6003549220263921   F   T   T
  0.0728991332615152  0.0717589597629825  0.1465981892133313   F   T   T
  0.3023473340698573  0.9282410313551408  0.8534017902990785   F   T   T
  0.1147241003833415  0.9287971701679919  0.6562132035232574   F   T   T
  0.2605223669063790  0.0712028209501319  0.3437867965025994   F   T   T
  0.3023473340698573  0.5717589686005924  0.8534017902990785   F   T   T
  0.0728991332615152  0.4282410313698987  0.1465981892133313   F   T   T
  0.2605223669063790  0.4287971701827494  0.3437867965025994   F   T   T
  0.1147241003833415  0.5712028297877413  0.6562132035232574   F   T   T
  0.0311098080788312  0.7500000176088264  0.5970095926383663   F   T   T
  0.3441366517971503  0.2500000000663931  0.4029904073013014   F   T   T
  0.1565134280650469  0.2500000000663931  0.0863234379783404   F   T   T
  0.2187330491790789  0.7500000176088264  0.9136765414478734   F   T   T
  0.0741839757202953  0.2500000000663931  0.9637642190054245   F   T   T
  0.3010624866547005  0.7500000176088264  0.0362357963624212   F   T   T
  0.1134392529681918  0.7500000176088264  0.4735579698933250   F   T   T
  0.2618072143215286  0.2500000000663931  0.5264419479063450   F   T   T
