ba8 si16                                
1.0
       24.0094680786         0.0000000000         0.0000000000
        0.0000000000         6.7778496742         0.0000000000
        0.0000000000         0.0000000000        11.6021432877
   Ba   Si
    8   16
Selective Dynamics
Cartesian
     0.136700655         1.694462419         8.185209127 F T T
     8.632767373         5.083387256         3.416934160 F T T
     4.368033359         5.083387256         2.181422947 F T T
     4.401434669         1.694462419         9.420720168 F T T
     1.435289350         5.083387256        10.660042295 F T T
     7.334178409         1.694462419         0.942100733 F T T
     3.069444753         1.694462419         4.642516738 F T T
     5.700023275         5.083387256         6.959627241 F T T
     1.750269406         0.486345862         1.705664954 F T T 
     7.019198622         6.291503913         9.896477988 F T T
     2.754464608         6.294714836         7.617310300 F T T
     6.01500342         0.483134636         3.984833333 F T T
     7.019198622         3.875270598         9.896477988 F T T
     1.750269406         2.902578874         1.705664954 F T T
     6.01500342         2.905790201         3.984833333 F T T
     2.754464608         3.872059675         7.617310300 F T T
     0.746929942         5.083387256         6.927323257 F T T
     8.022538041         1.694462419         4.674819685 F T T
     3.757804027         1.694462419         1.004857358 F T T
     5.011664001         5.083387256         10.597285584 F T T
     1.781117855         1.694462419        11.186947226 F T T
     6.988350352         5.083387256         0.415196451 F T T
     2.723616159         5.083387256         5.496966212 F T T
     6.04585169         1.694462419         6.105175692 F T T
