ba8 si16
1.0
73.5215425113         0.0000000000         0.0000000000
0.0000000000         6.7778496742         0.0000000000
0.0000000000         0.0000000000        11.6021432877
Ba   Si
52  104
Cartesian
0.136700675         1.694462419         8.020677527
9.146168709         1.694462419         8.020677527
18.155237741         1.694462419         8.020677527
27.165105820         1.694462419         8.020677527
36.174575806         1.694462419         8.020677527
45.184043884         1.694462419         8.020677527
54.193511963         1.694462419         8.020677527
8.872767448         5.083387375         3.581465721
17.882236481         5.083387375         3.581465721
26.891704559         5.083387375         3.581465721
35.901172638         5.083387375         3.581465721
44.910640717         5.083387375         3.581465721
53.920108795         5.083387375         3.581465721
4.368033409         5.083387375         2.219605207
13.377501488         5.083387375         2.219605207
22.386968613         5.083387375         2.219605207
31.396436691         5.083387375         2.219605207
40.405906677         5.083387375         2.219605207
49.415374752         5.083387375         2.219605207
58.424842834         5.083387375         2.219605207
4.641434669         1.694462419         9.382537842
13.650902748         1.694462419         9.382537842
22.660371780         1.694462419         9.382537842
31.669839859         1.694462419         9.382537842
40.679306030         1.694462419         9.382537842
49.688774109         1.694462419         9.382537842
1.435289264         5.083387375        10.519083023
10.444757462         5.083387375        10.519083023
19.454225540         5.083387375        10.519083023
28.463693619         5.083387375        10.519083023
37.473163605         5.083387375        10.519083023
46.482631683         5.083387375        10.519083023
55.492099762         5.083387375        10.519083023
7.574178696         1.694462419         1.083060026
16.583646774         1.694462419         1.083060026
25.593114853         1.694462419         1.083060026
34.602584839         1.694462419         1.083060026
43.612052917         1.694462419         1.083060026
52.621520996         1.694462419         1.083060026
3.069444652         1.694462419         4.718012333
12.078912735         1.694462419         4.718012333
21.088380814         1.694462419         4.718012333
30.097848892         1.694462419         4.718012333
39.107315063         1.694462419         4.718012333
48.116786957         1.694462419         4.718012333
57.126251221         1.694462419         4.718012333
5.940023899         5.083387375         6.884131432
14.949492455         5.083387375         6.884131432
23.958959579         5.083387375         6.884131432
32.968425751         5.083387375         6.884131432
41.977897644         5.083387375         6.884131432
50.987365723         5.083387375         6.884131432
1.750269413         0.491671979         1.702544928
10.759737968         0.491671979         1.702544928
19.769205093         0.491671979         1.702544928
28.778673172         0.491671979         1.702544928
37.788143158         0.491671979         1.702544928
46.797610437         0.491671979         1.702544928
55.807079315         0.491671979         1.702544928
7.259198189         6.286177635         9.899598122
16.268667221         6.286177635         9.899598122
25.278135300         6.286177635         9.899598122
34.287601471         6.286177635         9.899598122
43.297069550         6.286177635         9.899598122
52.306537628         6.286177635         9.899598122
2.754464626         6.286177635         7.503616810
11.763932228         6.286177635         7.503616810
20.773401260         6.286177635         7.503616810
29.782869339         6.286177635         7.503616810
38.792339325         6.286177635         7.503616810
47.801807404         6.286177635         7.503616810
52.810475482         6.286177635         7.503616810
6.255003452         0.491671979         4.098526478
15.264472008         0.491671979         4.098526478
24.273941040         0.491671979         4.098526478
33.283409119         0.491671979         4.098526478
42.292877197         0.491671979         4.098526478
51.302345276         0.491671979         4.098526478
7.259198189         3.880596876         9.899598122
16.268667221         3.880596876         9.899598122
25.278135300         3.880596876         9.899598122
34.287601471         3.880596876         9.899598122
43.297069550         3.880596876         9.899598122
52.306537628         3.880596876         9.899598122
1.750269413         2.897252798         1.702544928
10.759737968         2.897252798         1.702544928
19.769205093         2.897252798         1.702544928
28.778673172         2.897252798         1.702544928
37.788143158         2.897252798         1.702544928
46.797610437         2.897252798         1.702544928
55.807079315         2.897252798         1.702544928
6.255003452         2.897252798         4.098526478
15.264472008         2.897252798         4.098526478
24.273941040         2.897252798         4.098526478
33.283409119         2.897252798         4.098526478
42.292877197         2.897252798         4.098526478
51.302345276         2.897252798         4.098526478
2.754464626         3.880596876         7.503616810
11.763932228         3.880596876         7.503616810
20.773401260         3.880596876         7.503616810
29.782869339         3.880596876         7.503616810
38.792339325         3.880596876         7.503616810
47.801807404         3.880596876         7.503616810
52.810475482         3.880596876         7.503616810
0.746929944         5.083387375         6.868480682
9.752399155         5.083387375         6.868480682
18.765867233         5.083387375         6.868480682
27.775333405         5.083387375         6.868480682
36.784801483         5.083387375         6.868480682
45.794269522         5.083387375         6.868480682
54.803737640         5.083387375         6.868480682
8.262537952         1.694462419         4.733662605
17.272005081         1.694462419         4.733662605
26.281475067         1.694462419         4.733662605
35.290939331         1.694462419         4.733662605
44.300410424         1.694462419         4.733662605
53.309879303         1.694462419         4.733662605
3.757804155         1.694462419         1.067408323
12.767272949         1.694462419         1.067408323
21.776741028         1.694462419         1.067408323
30.786209106         1.694462419         1.067408323
39.795277185         1.694462419         1.067408323
48.805145264         1.694462419         1.067408323
57.814613342         1.694462419         1.067408323
5.251664162         5.083387375        10.534734726
14.261132240         5.083387375        10.534734726
23.270599365         5.083387375        10.534734726
32.280067444         5.083387375        10.534734726
41.289539337         5.083387375        10.534734726
50.299007416         5.083387375        10.534734726
1.781117916         1.694462419        11.218576431
10.790586472         1.694462419        11.218576431
19.800054550         1.694462419        11.218576431
28.809522629         1.694462419        11.218576431
37.818992615         1.694462419        11.218576431
46.828452879         1.694462419        11.218576431
55.837924957         1.694462419        11.218576431
7.228350163         5.083387375         0.383527035
16.237817764         5.083387375         0.383527035
25.247287750         5.083387375         0.383527035
34.252752014         5.083387375         0.383527035
43.266223907         5.083387375         0.383527035
52.275291986         5.083387375         0.383527035
2.723616362         5.083387375         5.417503834
11.733084679         5.083387375         5.417503834
20.742553711         5.083387375         5.417503834
29.752021790         5.083387375         5.417503834
38.761489868         5.083387375         5.417503834
47.770957947         5.083387375         5.417503834
52.780422211         5.083387375         5.417503834
6.285851955         1.694462419         6.184638500
15.295320511         1.694462419         6.184638500
24.304788589         1.694462419         6.184638500
33.314254761         1.694462419         6.184638500
42.323726654         1.694462419         6.184638500
51.333194733         1.694462419         6.184638500
