ba8 si16
1.0
55.5426063538         0.0000000000         0.0000000000
0.0000000000         6.7778496742         0.0000000000
0.0000000000         0.0000000000        11.6021432877
Ba   Si
36     72
Cartesian
0.136700660         1.694462419         8.020677567
9.146168709         1.694462419         8.020677567
18.155635834         1.694462419         8.020677567
27.165105820         1.694462419         8.020677567
36.174571991         1.694462419         8.020677567
8.872767448         5.083387375         3.581465721
17.882234573         5.083387375         3.581465721
26.891704559         5.083387375         3.581465721
35.901172638         5.083387375         3.581465721
4.368033409         5.083387375         2.219605207
13.377502441         5.083387375         2.219605207
22.386970520         5.083387375         2.219605207
31.396440506         5.083387375         2.219605207
40.405906677         5.083387375         2.219605207
4.641434669         1.694462419         9.382537842
13.650902748         1.694462419         9.382537842
22.660369873         1.694462419         9.382537842
31.669839859         1.694462419         9.382537842
1.435289383         5.083387375        10.519083023
10.444757462         5.083387375        10.519083023
19.454225540         5.083387375        10.519083023
28.463693619         5.083387375        10.519083023
37.473159790         5.083387375        10.519083023
7.574178219         1.694462419         1.083060026
16.583646774         1.694462419         1.083060026
25.593114853         1.694462419         1.083060026
34.602584839         1.694462419         1.083060026
3.069444656         1.694462419         4.718012333
12.078912735         1.694462419         4.718012333
21.088380814         1.694462419         4.718012333
30.097848892         1.694462419         4.718012333
39.107315063         1.694462419         4.718012333
5.940023422         5.083387375         6.884131432
14.949491501         5.083387375         6.884131432
23.958959579         5.083387375         6.884131432
32.968429565         5.083387375         6.884131432
1.750269294         0.491671979         1.702544928
10.759737968         0.491671979         1.702544928
19.769205093         0.491671979         1.702544928
28.778675079         0.491671979         1.702544928
37.788143158         0.491671979         1.702544928
7.259198666         6.286177635         9.899598122
16.268667221         6.286177635         9.899598122
25.278135300         6.286177635         9.899598122
34.287601471         6.286177635         9.899598122
2.754464626         6.286177635         7.503616810
11.763933182         6.286177635         7.503616810
20.773401260         6.286177635         7.503616810
29.782871246         6.286177635         7.503616810
38.792339325         6.286177635         7.503616810
6.255003452         0.491671979         4.098526478
15.264472008         0.491671979         4.098526478
24.273939133         0.491671979         4.098526478
33.283409119         0.491671979         4.098526478
7.259198666         3.880596876         9.899598122
16.268667221         3.880596876         9.899598122
25.278135300         3.880596876         9.899598122
34.287601471         3.880596876         9.899598122
1.750269294         2.897252798         1.702544928
10.759737968         2.897252798         1.702544928
19.769205093         2.897252798         1.702544928
28.778675079         2.897252798         1.702544928
37.788143158         2.897252798         1.702544928
6.255003452         2.897252798         4.098526478
15.264472008         2.897252798         4.098526478
24.273939133         2.897252798         4.098526478
33.283409119         2.897252798         4.098526478
2.754464626         3.880596876         7.503616810
11.763933182         3.880596876         7.503616810
20.773401260         3.880596876         7.503616810
29.782871246         3.880596876         7.503616810
38.792339325         3.880596876         7.503616810
0.746930003         5.083387375         6.868480682
9.756398201         5.083387375         6.868480682
18.765867233         5.083387375         6.868480682
27.775335312         5.083387375         6.868480682
36.784801483         5.083387375         6.868480682
8.262537956         1.694462419         4.733662605
17.272006989         1.694462419         4.733662605
26.281475067         1.694462419         4.733662605
35.290943146         1.694462419         4.733662605
3.757804155         1.694462419         1.067408323
12.767272949         1.694462419         1.067408323
21.776741028         1.694462419         1.067408323
30.786211014         1.694462419         1.067408323
39.795677185         1.694462419         1.067408323
5.251664162         5.083387375        10.534734726
14.261132240         5.083387375        10.534734726
23.270599365         5.083387375        10.534734726
32.280071259         5.083387375        10.534734726
1.781117797         1.694462419        11.218576431
10.790586472         1.694462419        11.218576431
19.800054550         1.694462419        11.218576431
28.809522629         1.694462419        11.218576431
37.818988800         1.694462419        11.218576431
7.228350163         5.083387375         0.383567035
16.237817764         5.083387375         0.383567035
25.247287750         5.083387375         0.383567035
34.256755829         5.083387375         0.383567035
2.723616362         5.083387375         5.417503834
11.733084679         5.083387375         5.417503834
20.742551804         5.083387375         5.417503834
29.752021790         5.083387375         5.417503834
38.761489868         5.083387375         5.417503834
6.285851479         1.694462419         6.184638500
15.295320511         1.694462419         6.184638500
24.304788589         1.694462419         6.184638500
33.314254761         1.694462419         6.184638500
