ba8 si16
1.00000000000000
19.5400502694    0.0000000000000000   -0.1256676211689219
0.0000000000000000    6.5403619402746864    0.0000000000000000
-0.0660018695352936    0.0000000000000000   11.2484058311128994
Ba   Si
4     8
Direct
0.0107233754671700  0.2500000000663931  0.6944211326481053
0.1771308549892329  0.7500000176088264  0.1933645658337958
0.0865927081166527  0.7500000176088264  0.9121238480863852
0.1303930281163803  0.2500000000663931  0.3920611806061710
0.0637071486123891  0.0663536546242089  0.1466051433850921
0.1158150475100711  0.9332247074383418  0.6394351405714183
0.0637071486123891  0.4336463365086725  0.1466051433850921
0.1158150475100711  0.5667752925173913  0.6394351405714183
0.0286006300942485  0.7500000176088264  0.6109998463659094
0.1474362181019441  0.2500000000663931  0.0804050624370080
0.0635110095848198  0.2500000000663931  0.9603792727968778
0.0976361444917493  0.7500000176088264  0.4554963627051347

0.00000000E+00  0.00000000E+00  0.00000000E+00
0.00000000E+00  0.00000000E+00  0.00000000E+00
0.00000000E+00  0.00000000E+00  0.00000000E+00
0.00000000E+00  0.00000000E+00  0.00000000E+00
0.00000000E+00  0.00000000E+00  0.00000000E+00
0.00000000E+00  0.00000000E+00  0.00000000E+00
0.00000000E+00  0.00000000E+00  0.00000000E+00
0.00000000E+00  0.00000000E+00  0.00000000E+00
0.00000000E+00  0.00000000E+00  0.00000000E+00
0.00000000E+00  0.00000000E+00  0.00000000E+00
0.00000000E+00  0.00000000E+00  0.00000000E+00
0.00000000E+00  0.00000000E+00  0.00000000E+00
0.00000000E+00  0.00000000E+00  0.00000000E+00
0.00000000E+00  0.00000000E+00  0.00000000E+00
0.00000000E+00  0.00000000E+00  0.00000000E+00
0.00000000E+00  0.00000000E+00  0.00000000E+00
0.00000000E+00  0.00000000E+00  0.00000000E+00
0.00000000E+00  0.00000000E+00  0.00000000E+00
0.00000000E+00  0.00000000E+00  0.00000000E+00
0.00000000E+00  0.00000000E+00  0.00000000E+00
0.00000000E+00  0.00000000E+00  0.00000000E+00
0.00000000E+00  0.00000000E+00  0.00000000E+00
0.00000000E+00  0.00000000E+00  0.00000000E+00
0.00000000E+00  0.00000000E+00  0.00000000E+00
