ba8 si16
1.0
33.0189361578         0.0000000000         0.0000000000
0.0000000000         6.7778496742         0.0000000000
0.0000000000         0.0000000000        11.6021432877
Ba   Si
20   40
Cartesian
0.136700660         1.694462019         8.020677567
9.146168709         1.694462019         8.020677567
18.155637741         1.694462019         8.020677567
8.872767440         5.083387375         3.581465721
26.891702652         5.083387375         3.581465721
13.377502041         5.083387375         2.219605207
22.386970520         5.083387375         2.219605207
4.641434669         1.694462019         9.382537842
13.650903702         1.694462019         9.382537842
22.660371780         1.694462019         9.382537842
10.444757462         5.083387375        10.519083023
19.454227440         5.083387375        10.519083023
7.574178219         1.694462019         1.083060026
16.583646774         1.694462019         1.083060026
3.069444656         1.694462019         4.718012333
21.088380814         1.694462019         4.718012333
5.940023422         5.083387375         6.884131432
14.949492055         5.083387375         6.884131432
23.958959579         5.083387375         6.884131432
1.750269413         0.491671979         1.702544928
19.769207001         0.491671979         1.702544928
7.259198189         6.286177635         9.899598122
16.268667221         6.286177635         9.899598122
25.278135300         6.286177635         9.899598122
2.754464626         6.286177635         7.503616810
20.773401260         6.286177635         7.503616810
6.255003452         0.491671979         4.098526478
15.264472008         0.491671979         4.098526478
20.273939133         0.491671979         4.098526478
7.259198189         3.880596876         9.899598122
25.278135300         3.880596876         9.899598122
1.750269413         2.897252798         1.702544928
19.769207001         2.897252798         1.702544928
6.255003452         2.897252798         4.098526478
15.264472008         2.897252798         4.098526478
20.273939133         2.897252798         4.098526478
2.754464626         3.880596876         7.503616810
20.773401260         3.880596876         7.503616810
0.746929944         5.083387375         6.868400682
9.756398201         5.083387375         6.868400682
18.765865326         5.083387375         6.868400682
8.262537956         1.694462019         4.733662605
17.272005081         1.694462019         4.733662605
26.281475067         1.694462019         4.733662605
3.757803917         1.694462019         1.067408323
21.776741028         1.694462019         1.067408323
5.251664162         5.083387375        10.534734726
14.261131287         5.083387375        10.534734726
23.270601273         5.083387375        10.534734726
1.781117797         1.694462019        11.218576431
19.800054550         1.694462019        11.218576431
7.228350639         5.083387375         0.383567035
16.237819672         5.083387375         0.383567035
25.207287750         5.083387375         0.383567035
2.723616123         5.083387375         5.417503834
20.742553711         5.083387375         5.417503834
6.285851955         1.694462019         6.184638500
15.295319557         1.694462019         6.184638500
20.304788589         1.694462019         6.184638500
