ba8 si16
1.0
100.5899467471         0.0000000000         0.0000000000
0.0000000000         6.7778496742         0.0000000000
0.0000000000         0.0000000000        11.6021432877
Ba   Si
76  152
Cartesian
0.136700660         1.694462419         8.020677567
9.146168709         1.694462419         8.020677567
18.155635834         1.694462419         8.020677567
27.165105820         1.694462419         8.020677567
36.174571991         1.694462419         8.020677567
45.184040070         1.694462419         8.020677567
54.193511963         1.694462419         8.020677567
63.202976227         1.694462419         8.020677567
72.212448120         1.694462419         8.020677567
81.221908569         1.694462419         8.020677567
8.872767448         5.083387375         3.581465721
17.882234573         5.083387375         3.581465721
26.891704559         5.083387375         3.581465721
35.901172638         5.083387375         3.581465721
44.910640717         5.083387375         3.581465721
53.920108795         5.083387375         3.581465721
62.929576688         5.083387375         3.581465721
71.939041138         5.083387375         3.581465721
80.948509216         5.083387375         3.581465721
4.367633409         5.083387375         2.219605207
13.377502441         5.083387375         2.219605207
22.386970520         5.083387375         2.219605207
31.396440506         5.083387375         2.219605207
40.405906677         5.083387375         2.219605207
49.415374756         5.083387375         2.219605207
58.424846649         5.083387375         2.219605207
67.434310913         5.083387375         2.219605207
76.443778992         5.083387375         2.219605207
85.453247070         5.083387375         2.219605207
4.641434669         1.694462419         9.382537842
13.650902748         1.694462419         9.382537842
22.660369873         1.694462419         9.382537842
31.669839859         1.694462419         9.382537842
40.679309845         1.694462419         9.382537842
49.688774109         1.694462419         9.382537842
58.698246002         1.694462419         9.382537842
67.707710266         1.694462419         9.382537842
76.717178345         1.694462419         9.382537842
1.435289383         5.083387375        10.519083023
10.444757462         5.083387375        10.519083023
19.454225540         5.083387375        10.519083023
28.463693619         5.083387375        10.519083023
37.473159790         5.083387375        10.519083023
46.482627869         5.083387375        10.519083023
55.492099762         5.083387375        10.519083023
64.501564026         5.083387375        10.519083023
73.511032104         5.083387375        10.519083023
82.520500183         5.083387375        10.519083023
7.574178219         1.694462419         1.083060026
16.583646774         1.694462419         1.083060026
25.593114853         1.694462419         1.083060026
34.602584839         1.694462419         1.083060026
43.612052917         1.694462419         1.083060026
52.621517181         1.694462419         1.083060026
61.630985260         1.694462419         1.083060026
70.640449524         1.694462419         1.083060026
79.649925232         1.694462419         1.083060026
3.069444656         1.694462419         4.717612333
12.078912735         1.694462419         4.717612333
21.088376814         1.694462419         4.717612333
30.097848892         1.694462419         4.717612333
39.107315063         1.694462419         4.717612333
48.116786957         1.694462419         4.717612333
57.126258850         1.694462419         4.717612333
66.135719299         1.694462419         4.717612333
75.145195007         1.694462419         4.717612333
84.154655457         1.694462419         4.717612333
5.940023422         5.083387375         6.884131432
14.949491501         5.083387375         6.884131432
23.958959579         5.083387375         6.884131432
32.968429565         5.083387375         6.884131432
41.977897644         5.083387375         6.884131432
50.987365723         5.083387375         6.884131432
59.996833761         5.083387375         6.884131432
69.006301876         5.083387375         6.884131432
78.015769958         5.083387375         6.884131432
1.750269294         0.491671979         1.702544928
10.759737968         0.491671979         1.702544928
19.769205093         0.491671979         1.702544928
28.778675079         0.491671979         1.702544928
37.788143158         0.491671979         1.702544928
46.797611237         0.491671979         1.702544928
55.767079315         0.491671979         1.702544928
64.816543579         0.491671979         1.702544928
73.826011658         0.491671979         1.702544928
82.835479736         0.491671979         1.702544928
7.259198666         6.286177635         9.899598122
16.268667221         6.286177635         9.899598122
25.278135300         6.286177635         9.899598122
34.287601471         6.286177635         9.899598122
43.297069550         6.286177635         9.899598122
52.306541443         6.286177635         9.899598122
61.315209521         6.286177635         9.899598122
70.325477600         6.286177635         9.899598122
79.334945679         6.286177635         9.899598122
2.754464626         6.286177635         7.503616810
11.763933182         6.286177635         7.503616810
20.773401260         6.286177635         7.503616810
29.782871246         6.286177635         7.503616810
38.792339325         6.286177635         7.503616810
47.761767404         6.286177635         7.503616810
56.811275482         6.286177635         7.503616810
65.820739746         6.286177635         7.503616810
74.830207825         6.286177635         7.503616810
83.839675903         6.286177635         7.503616810
6.255003452         0.491671979         4.098526478
15.264472008         0.491671979         4.098526478
24.273939133         0.491671979         4.098526478
33.283409119         0.491671979         4.098526478
42.292873383         0.491671979         4.098526478
51.302345276         0.491671979         4.098526478
60.311813354         0.491671979         4.098526478
69.321281433         0.491671979         4.098526478
78.330749512         0.491671979         4.098526478
7.259198666         3.876596876         9.899598122
16.268667221         3.876596876         9.899598122
25.278135300         3.876596876         9.899598122
34.287601471         3.876596876         9.899598122
43.297069550         3.876596876         9.899598122
52.306541443         3.876596876         9.899598122
61.315209521         3.876596876         9.899598122
70.325477600         3.876596876         9.899598122
79.334945679         3.876596876         9.899598122
1.750269294         2.897252798         1.702544928
10.759737968         2.897252798         1.702544928
19.769205093         2.897252798         1.702544928
28.778675079         2.897252798         1.702544928
37.788143158         2.897252798         1.702544928
46.797611237         2.897252798         1.702544928
55.767079315         2.897252798         1.702544928
64.816543579         2.897252798         1.702544928
73.826011658         2.897252798         1.702544928
82.835479736         2.897252798         1.702544928
6.255003452         2.897252798         4.098526478
15.264472008         2.897252798         4.098526478
24.273939133         2.897252798         4.098526478
33.283409119         2.897252798         4.098526478
42.292873383         2.897252798         4.098526478
51.302345276         2.897252798         4.098526478
60.311813354         2.897252798         4.098526478
69.321281433         2.897252798         4.098526478
78.330749512         2.897252798         4.098526478
2.754464626         3.876596876         7.503616810
11.763933182         3.876596876         7.503616810
20.773401260         3.876596876         7.503616810
29.782871246         3.876596876         7.503616810
38.792339325         3.876596876         7.503616810
47.761767404         3.876596876         7.503616810
56.811275482         3.876596876         7.503616810
65.820739746         3.876596876         7.503616810
74.830207825         3.876596876         7.503616810
83.839675903         3.876596876         7.503616810
0.746930003         5.083387375         6.868476682
9.756398201         5.083387375         6.868476682
18.765867233         5.083387375         6.868476682
27.775335312         5.083387375         6.868476682
36.784761483         5.083387375         6.868476682
45.794273376         5.083387375         6.868476682
54.763741455         5.083387375         6.868476682
63.813209534         5.083387375         6.868476682
72.822677612         5.083387375         6.868476682
81.832145691         5.083387375         6.868476682
8.262537956         1.694462419         4.733662605
17.272006989         1.694462419         4.733662605
26.281475067         1.694462419         4.733662605
35.290943146         1.694462419         4.733662605
44.300411224         1.694462419         4.733662605
53.309879303         1.694462419         4.733662605
62.319347382         1.694462419         4.733662605
71.328811646         1.694462419         4.733662605
80.338279724         1.694462419         4.733662605
3.757764155         1.694462419         1.067408323
12.767272949         1.694462419         1.067408323
21.776741028         1.694462419         1.067408323
30.786211014         1.694462419         1.067408323
39.795677185         1.694462419         1.067408323
48.765141449         1.694462419         1.067408323
57.814613342         1.694462419         1.067408323
66.824081421         1.694462419         1.067408323
75.833549500         1.694462419         1.067408323
84.843009949         1.694462419         1.067408323
5.251664162         5.083387375        10.534734726
14.261132240         5.083387375        10.534734726
23.270599365         5.083387375        10.534734726
32.276071259         5.083387375        10.534734726
41.289539337         5.083387375        10.534734726
50.299003601         5.083387375        10.534734726
59.308471676         5.083387375        10.534734726
68.317939758         5.083387375        10.534734726
77.327407837         5.083387375        10.534734726
1.781117797         1.694462419        11.218576431
10.790586472         1.694462419        11.218576431
19.760054550         1.694462419        11.218576431
28.769522629         1.694462419        11.218576431
37.818988760         1.694462419        11.218576431
46.828460693         1.694462419        11.218576431
55.837932587         1.694462419        11.218576431
64.847389221         1.694462419        11.218576431
73.856857300         1.694462419        11.218576431
82.866333008         1.694462419        11.218576431
7.228350163         5.083387375         0.383567035
16.237817764         5.083387375         0.383567035
25.247287750         5.083387375         0.383567035
34.256755829         5.083387375         0.383567035
43.266223907         5.083387375         0.383567035
52.275691986         5.083387375         0.383567035
61.285152065         5.083387375         0.383567035
70.294624329         5.083387375         0.383567035
79.304092407         5.083387375         0.383567035
2.723616362         5.083387375         5.417503834
11.733084679         5.083387375         5.417503834
20.742551764         5.083387375         5.417503834
29.752021790         5.083387375         5.417503834
38.761489868         5.083387375         5.417503834
47.770954132         5.083387375         5.417503834
56.776426025         5.083387375         5.417503834
65.789886475         5.083387375         5.417503834
74.799362183         5.083387375         5.417503834
83.768822632         5.083387375         5.417503834
6.285851479         1.694462419         6.184638500
15.295320511         1.694462419         6.184638500
24.304788589         1.694462419         6.184638500
33.314254761         1.694462419         6.184638500
42.323726654         1.694462419         6.184638500
51.333190918         1.694462419         6.184638500
60.342658997         1.694462419         6.184638500
69.352127075         1.694462419         6.184638500
78.361595154         1.694462419         6.184638500
