Automatically generated mesh
      124
Reciprocal lattice
    0.00000000000000    0.00000000000000    0.00000000000000             1
    0.25000000000000    0.00000000000000    0.00000000000000             2
    0.50000000000000    0.00000000000000    0.00000000000000             1
    0.00000000000000    0.16666666666667    0.00000000000000             2
    0.25000000000000    0.16666666666667    0.00000000000000             4
    0.50000000000000    0.16666666666667    0.00000000000000             2
    0.00000000000000    0.33333333333333    0.00000000000000             2
    0.25000000000000    0.33333333333333    0.00000000000000             4
    0.50000000000000    0.33333333333333    0.00000000000000             2
    0.00000000000000    0.50000000000000    0.00000000000000             1
    0.25000000000000    0.50000000000000    0.00000000000000             2
    0.50000000000000    0.50000000000000    0.00000000000000             1
    0.00000000000000    0.00000000000000    0.33333333333333             2
    0.25000000000000    0.00000000000000    0.33333333333333             4
    0.50000000000000    0.00000000000000    0.33333333333333             2
    0.00000000000000    0.16666666666667    0.33333333333333             4
    0.25000000000000    0.16666666666667    0.33333333333333             8
    0.50000000000000    0.16666666666667    0.33333333333333             4
    0.00000000000000    0.33333333333333    0.33333333333333             4
    0.25000000000000    0.33333333333333    0.33333333333333             8
    0.50000000000000    0.33333333333333    0.33333333333333             4
    0.00000000000000    0.50000000000000    0.33333333333333             2
    0.25000000000000    0.50000000000000    0.33333333333333             4
    0.50000000000000    0.50000000000000    0.33333333333333             2
   0.00000000  0.00000000  0.00000000       0.00 \Gamma
   0.00000000  0.02631579  0.00000000       0.00
   0.00000000  0.05263158  0.00000000       0.00
   0.00000000  0.07894737  0.00000000       0.00
   0.00000000  0.10526316  0.00000000       0.00
   0.00000000  0.13157895  0.00000000       0.00
   0.00000000  0.15789474  0.00000000       0.00
   0.00000000  0.18421053  0.00000000       0.00
   0.00000000  0.21052632  0.00000000       0.00
   0.00000000  0.23684211  0.00000000       0.00
   0.00000000  0.26315789  0.00000000       0.00
   0.00000000  0.28947368  0.00000000       0.00
   0.00000000  0.31578947  0.00000000       0.00
   0.00000000  0.34210526  0.00000000       0.00
   0.00000000  0.36842105  0.00000000       0.00
   0.00000000  0.39473684  0.00000000       0.00
   0.00000000  0.42105263  0.00000000       0.00
   0.00000000  0.44736842  0.00000000       0.00
   0.00000000  0.47368421  0.00000000       0.00
   0.00000000  0.50000000  0.00000000       0.00 Y
   0.00000000  0.50000000  0.00000000       0.00 Y
   0.00000000  0.50000000  0.02631579       0.00
   0.00000000  0.50000000  0.05263158       0.00
   0.00000000  0.50000000  0.07894737       0.00
   0.00000000  0.50000000  0.10526316       0.00
   0.00000000  0.50000000  0.13157895       0.00
   0.00000000  0.50000000  0.15789474       0.00
   0.00000000  0.50000000  0.18421053       0.00
   0.00000000  0.50000000  0.21052632       0.00
   0.00000000  0.50000000  0.23684211       0.00
   0.00000000  0.50000000  0.26315789       0.00
   0.00000000  0.50000000  0.28947368       0.00
   0.00000000  0.50000000  0.31578947       0.00
   0.00000000  0.50000000  0.34210526       0.00
   0.00000000  0.50000000  0.36842105       0.00
   0.00000000  0.50000000  0.39473684       0.00
   0.00000000  0.50000000  0.42105263       0.00
   0.00000000  0.50000000  0.44736842       0.00
   0.00000000  0.50000000  0.47368421       0.00
   0.00000000  0.50000000  0.50000000       0.00 T
   0.00000000  0.50000000  0.50000000       0.00 T
   0.00000000  0.47368421  0.50000000       0.00
   0.00000000  0.44736842  0.50000000       0.00
   0.00000000  0.42105263  0.50000000       0.00
   0.00000000  0.39473684  0.50000000       0.00
   0.00000000  0.36842105  0.50000000       0.00
   0.00000000  0.34210526  0.50000000       0.00
   0.00000000  0.31578947  0.50000000       0.00
   0.00000000  0.28947368  0.50000000       0.00
   0.00000000  0.26315789  0.50000000       0.00
   0.00000000  0.23684211  0.50000000       0.00
   0.00000000  0.21052632  0.50000000       0.00
   0.00000000  0.18421053  0.50000000       0.00
   0.00000000  0.15789474  0.50000000       0.00
   0.00000000  0.13157895  0.50000000       0.00
   0.00000000  0.10526316  0.50000000       0.00
   0.00000000  0.07894737  0.50000000       0.00
   0.00000000  0.05263158  0.50000000       0.00
   0.00000000  0.02631579  0.50000000       0.00
   0.00000000  0.00000000  0.50000000       0.00 Z
   0.00000000  0.00000000  0.50000000       0.00 Z
   0.00000000  0.00000000  0.47368421       0.00
   0.00000000  0.00000000  0.44736842       0.00
   0.00000000  0.00000000  0.42105263       0.00
   0.00000000  0.00000000  0.39473684       0.00
   0.00000000  0.00000000  0.36842105       0.00
   0.00000000  0.00000000  0.34210526       0.00
   0.00000000  0.00000000  0.31578947       0.00
   0.00000000  0.00000000  0.28947368       0.00
   0.00000000  0.00000000  0.26315789       0.00
   0.00000000  0.00000000  0.23684211       0.00
   0.00000000  0.00000000  0.21052632       0.00
   0.00000000  0.00000000  0.18421053       0.00
   0.00000000  0.00000000  0.15789474       0.00
   0.00000000  0.00000000  0.13157895       0.00
   0.00000000  0.00000000  0.10526316       0.00
   0.00000000  0.00000000  0.07894737       0.00
   0.00000000  0.00000000  0.05263158       0.00
   0.00000000  0.00000000  0.02631579       0.00
   0.00000000  0.00000000  0.00000000       0.00 \Gamma
   0.00000000  0.00000000  0.00000000       0.00 \Gamma
   0.02631579  0.00000000  0.00000000       0.00
   0.05263158  0.00000000  0.00000000       0.00
   0.07894737  0.00000000  0.00000000       0.00
   0.10526316  0.00000000  0.00000000       0.00
   0.13157895  0.00000000  0.00000000       0.00
   0.15789474  0.00000000  0.00000000       0.00
   0.18421053  0.00000000  0.00000000       0.00
   0.21052632  0.00000000  0.00000000       0.00
   0.23684211  0.00000000  0.00000000       0.00
   0.26315789  0.00000000  0.00000000       0.00
   0.28947368  0.00000000  0.00000000       0.00
   0.31578947  0.00000000  0.00000000       0.00
   0.34210526  0.00000000  0.00000000       0.00
   0.36842105  0.00000000  0.00000000       0.00
   0.39473684  0.00000000  0.00000000       0.00
   0.42105263  0.00000000  0.00000000       0.00
   0.44736842  0.00000000  0.00000000       0.00
   0.47368421  0.00000000  0.00000000       0.00
   0.50000000  0.00000000  0.00000000       0.00 X

