ba8 si16                                
   1.00000000000000     
    68.5013911432738922    0.0000000000000000   -0.0030101416164651
     0.0000000000000000    6.6962686873265014    0.0000000000000000
    -0.0005926527728593    0.0000000000000000   11.4638231498205858
   Ba   Si
    48    96
Direct
  0.0048872462830216  0.2500000000663931  0.7005392752074845
  0.1327362118662381  0.2500000000663931  0.6903291685897679
  0.2629672559874886  0.2500000000663931  0.6914350490387755
  0.3934955592099063  0.2500000000663931  0.6911065490642438
  0.5239465824370118  0.2500000000663931  0.6912389494050125
  0.6543647522016924  0.2500000000663931  0.6917810170760218
  0.1284227630967170  0.7500000176088264  0.3082189829498346
  0.2588409742910484  0.7500000176088264  0.3087610506208440
  0.3892919699032159  0.7500000176088264  0.3088934509616129
  0.5198203007405785  0.7500000176088264  0.3085649509870815
  0.6500513310615900  0.7500000176088264  0.3096708314360888
  0.7779002970647586  0.7500000176088264  0.2994607248183718
  0.0617145452665808  0.7500000176088264  0.1926251698627713
  0.1935262592716386  0.7500000176088264  0.1910685790730703
  0.3240915774830053  0.7500000176088264  0.1914268104358413
  0.4545205266499886  0.7500000176088264  0.1913202273488032
  0.5849994855071893  0.7500000176088264  0.1909317589052021
  0.7151294855948697  0.7500000176088264  0.1920411692005270
  0.0676580573184844  0.2500000000663931  0.8079588102256867
  0.1977880712208777  0.2500000000663931  0.8090682205210115
  0.3282670300780785  0.2500000000663931  0.8086797520774106
  0.4586959516301097  0.2500000000663931  0.8085731689903723
  0.5892612698270029  0.2500000000663931  0.8089314003531437
  0.7210729700318285  0.2500000000663931  0.8073748095634423
  0.0279292625996033  0.7500000176088264  0.9119102140263731
  0.1517571968849343  0.7500000176088264  0.9059486401818145
  0.2819179600559825  0.7500000176088264  0.9062112587717291
  0.4124038874776990  0.7500000176088264  0.9058897853790731
  0.5427532167993109  0.7500000176088264  0.9057382891831196
  0.6739029265277388  0.7500000176088264  0.9072476983451406
  0.1088845680630747  0.2500000000663931  0.0927522810810733
  0.2400343399287565  0.2500000000663931  0.0942616902430941
  0.3703836416354231  0.2500000000663931  0.0941101940471407
  0.5008695690571393  0.2500000000663931  0.0937887206544849
  0.6310303046132427  0.2500000000663931  0.0940513392443993
  0.7548582388840858  0.2500000000663931  0.0880897653998409
  0.0451835194778059  0.2500000000663931  0.3950548163710882
  0.1747313215771636  0.2500000000663931  0.4050285992747473
  0.3051578692445175  0.2500000000663931  0.4061460910633998
  0.4357371666585667  0.2500000000663931  0.4057897114111549
  0.5660679133654968  0.2500000000663931  0.4061135812231514
  0.6961644703198824  0.2500000000663931  0.4047888458157780
  0.0866230311638137  0.7500000176088264  0.5952111953231688
  0.2167196571772832  0.7500000176088264  0.5938864599157948
  0.3470503624400675  0.7500000176088264  0.5942103297277915
  0.4776296874835496  0.7500000176088264  0.5938539500755469
  0.6080562351509037  0.7500000176088264  0.5949714418641990
  0.7376040372502612  0.7500000176088264  0.6049452247678579
  0.0236848792889262  0.0713613287713437  0.1451098912199504
  0.1552949955962075  0.0702774339915415  0.1457576672450584
  0.2860473414695796  0.0701948402412273  0.1463645145026961
  0.4163995867095816  0.0701362234662280  0.1463434434110251
  0.5468498703642188  0.0701550364503407  0.1459556488995656
  0.6766762552434287  0.0697924488415492  0.1459259886011782
  0.1061112324400355  0.9302075422765743  0.8540739909112317
  0.2359376863638409  0.9298449546677828  0.8540443306128442
  0.3663879424035405  0.9298637676518955  0.8536565361013849
  0.4967401876435425  0.9298051508768961  0.8536354650097137
  0.6274925197021944  0.9297225571265817  0.8542423122673517
  0.7591026291021264  0.9286386623467797  0.8548900882924594
  0.0406306749045582  0.9285256903433761  0.6415709588868668
  0.1707438038774007  0.9298509425779601  0.6456252239296113
  0.3010481066525119  0.9297828577818092  0.6464591816921818
  0.4316350252995063  0.9298727121878611  0.6460594126661827
  0.5620816590189565  0.9298561016838093  0.6464810502984838
  0.6925090656513081  0.9304905345840655  0.6471591530241976
  0.0902784427397444  0.0695094565340581  0.3528408470016595
  0.2207059115238234  0.0701438894343138  0.3535189497273729
  0.3511525038136158  0.0701272789302623  0.3539405873596738
  0.4817394500755481  0.0702171333363141  0.3535408183336749
  0.6120437528506669  0.0701490485401635  0.3543747760962453
  0.7421568749161522  0.0714743007747470  0.3584290411389901
  0.1061112324400355  0.5697924576791589  0.8540739909112317
  0.2359376863638409  0.5701550452879504  0.8540443306128442
  0.3663879424035405  0.5701362323038377  0.8536565361013849
  0.4967401876435425  0.5701948490788371  0.8536354650097137
  0.6274925197021944  0.5702774428291515  0.8542423122673517
  0.7591026291021264  0.5713613376089535  0.8548900882924594
  0.0236848792889262  0.4286386623615376  0.1451098912199504
  0.1552949955962075  0.4297225571413398  0.1457576672450584
  0.2860473414695796  0.4298051508916542  0.1463645145026961
  0.4163995867095816  0.4298637676666534  0.1463434434110251
  0.5468498703642188  0.4298449546825406  0.1459556488995656
  0.6766762552434287  0.4302075422913323  0.1459259886011782
  0.0902784427397444  0.4304905345988232  0.3528408470016595
  0.2207059115238234  0.4298561016985674  0.3535189497273729
  0.3511525038136158  0.4298727122026193  0.3539405873596738
  0.4817394500755481  0.4297828577965671  0.3535408183336749
  0.6120437528506669  0.4298509425927181  0.3543747760962453
  0.7421568749161522  0.4285256903581347  0.3584290411389901
  0.0406306749045582  0.5714743096123571  0.6415709588868668
  0.1707438038774007  0.5701490573777731  0.6456252239296113
  0.3010481066525119  0.5702171421739239  0.6464591816921818
  0.4316350252995063  0.5701272877678721  0.6460594126661827
  0.5620816590189565  0.5701438982719239  0.6464810502984838
  0.6925090656513081  0.5695094653716677  0.6471591530241976
  0.0097391975934081  0.7500000176088264  0.6181664232323901
  0.1414154662945528  0.7500000176088264  0.5915595717403654
  0.2717188057040466  0.7500000176088264  0.5919435448521423
  0.4023131358291496  0.7500000176088264  0.5916104533732002
  0.5327833770131876  0.7500000176088264  0.5917345553703641
  0.6632771288284194  0.7500000176088264  0.5925690355469582
  0.1195103864699830  0.2500000000663931  0.4074309643927093
  0.2500041244705086  0.2500000000663931  0.4082654445693038
  0.3804743932839654  0.2500000000663931  0.4083895465664678
  0.5110687234090751  0.2500000000663931  0.4080564550875256
  0.6413720766188014  0.2500000000663931  0.4084404281993026
  0.7730482874979820  0.2500000000663931  0.3818335767072775
  0.0535672056228205  0.2500000000663931  0.0823425757763005
  0.1846535646369976  0.2500000000663931  0.0916410692347136
  0.3153782254506076  0.2500000000663931  0.0917775762001203
  0.4457118311654369  0.2500000000663931  0.0917289106505089
  0.5761524526993942  0.2500000000663931  0.0915234267510274
  0.7057622772912225  0.2500000000663931  0.0909737972779329
  0.0770252103922347  0.7500000176088264  0.9090261821482811
  0.2066350764137276  0.7500000176088264  0.9084765526751866
  0.3370756979476852  0.7500000176088264  0.9082710687757048
  0.4674093036625145  0.7500000176088264  0.9082224032260935
  0.5981340197060142  0.7500000176088264  0.9083589101914994
  0.7292203096755819  0.7500000176088264  0.9176574036499134
  0.0239283189540157  0.2500000000663931  0.9623306342531834
  0.1558696177355572  0.2500000000663931  0.9639002538395114
  0.2865612571386640  0.2500000000663931  0.9644468709223221
  0.4168930716813591  0.2500000000663931  0.9644370394560742
  0.5473844805166409  0.2500000000663931  0.9639402249890725
  0.6776147265589224  0.2500000000663931  0.9632535718218243
  0.1051727887394868  0.7500000176088264  0.0367464435460216
  0.2354031038408451  0.7500000176088264  0.0360597903787731
  0.3658944574172821  0.7500000176088264  0.0355629759117716
  0.4962262995894031  0.7500000176088264  0.0355531444455236
  0.6269179389925099  0.7500000176088264  0.0360997615283343
  0.7588591738991015  0.7500000176088264  0.0376693811146620
  0.0337820974995732  0.7500000176088264  0.4614251571683216
  0.1702143064827080  0.7500000176088264  0.4638732780131950
  0.3005135051066087  0.7500000176088264  0.4644720555111658
  0.4311034335324004  0.7500000176088264  0.4641187514892616
  0.5616215578747603  0.7500000176088264  0.4645327009589715
  0.6919778878843491  0.7500000176088264  0.4650188322338089
  0.0908096619363619  0.2500000000663931  0.5349810855658612
  0.2211659850385869  0.2500000000663931  0.5354672168406985
  0.3516841231956667  0.2500000000663931  0.5358811663104084
  0.4822740240065134  0.2500000000663931  0.5355278622885044
  0.6125732640600651  0.2500000000663931  0.5361266397864748
  0.7490054108914793  0.2500000000663931  0.5385747606313486
 
  0.00000000E+00  0.00000000E+00  0.00000000E+00
  0.00000000E+00  0.00000000E+00  0.00000000E+00
  0.00000000E+00  0.00000000E+00  0.00000000E+00
  0.00000000E+00  0.00000000E+00  0.00000000E+00
  0.00000000E+00  0.00000000E+00  0.00000000E+00
  0.00000000E+00  0.00000000E+00  0.00000000E+00
  0.00000000E+00  0.00000000E+00  0.00000000E+00
  0.00000000E+00  0.00000000E+00  0.00000000E+00
  0.00000000E+00  0.00000000E+00  0.00000000E+00
  0.00000000E+00  0.00000000E+00  0.00000000E+00
  0.00000000E+00  0.00000000E+00  0.00000000E+00
  0.00000000E+00  0.00000000E+00  0.00000000E+00
  0.00000000E+00  0.00000000E+00  0.00000000E+00
  0.00000000E+00  0.00000000E+00  0.00000000E+00
  0.00000000E+00  0.00000000E+00  0.00000000E+00
  0.00000000E+00  0.00000000E+00  0.00000000E+00
  0.00000000E+00  0.00000000E+00  0.00000000E+00
  0.00000000E+00  0.00000000E+00  0.00000000E+00
  0.00000000E+00  0.00000000E+00  0.00000000E+00
  0.00000000E+00  0.00000000E+00  0.00000000E+00
  0.00000000E+00  0.00000000E+00  0.00000000E+00
  0.00000000E+00  0.00000000E+00  0.00000000E+00
  0.00000000E+00  0.00000000E+00  0.00000000E+00
  0.00000000E+00  0.00000000E+00  0.00000000E+00
  0.00000000E+00  0.00000000E+00  0.00000000E+00
  0.00000000E+00  0.00000000E+00  0.00000000E+00
  0.00000000E+00  0.00000000E+00  0.00000000E+00
  0.00000000E+00  0.00000000E+00  0.00000000E+00
  0.00000000E+00  0.00000000E+00  0.00000000E+00
  0.00000000E+00  0.00000000E+00  0.00000000E+00
  0.00000000E+00  0.00000000E+00  0.00000000E+00
  0.00000000E+00  0.00000000E+00  0.00000000E+00
  0.00000000E+00  0.00000000E+00  0.00000000E+00
  0.00000000E+00  0.00000000E+00  0.00000000E+00
  0.00000000E+00  0.00000000E+00  0.00000000E+00
  0.00000000E+00  0.00000000E+00  0.00000000E+00
  0.00000000E+00  0.00000000E+00  0.00000000E+00
  0.00000000E+00  0.00000000E+00  0.00000000E+00
  0.00000000E+00  0.00000000E+00  0.00000000E+00
  0.00000000E+00  0.00000000E+00  0.00000000E+00
  0.00000000E+00  0.00000000E+00  0.00000000E+00
  0.00000000E+00  0.00000000E+00  0.00000000E+00
  0.00000000E+00  0.00000000E+00  0.00000000E+00
  0.00000000E+00  0.00000000E+00  0.00000000E+00
  0.00000000E+00  0.00000000E+00  0.00000000E+00
  0.00000000E+00  0.00000000E+00  0.00000000E+00
  0.00000000E+00  0.00000000E+00  0.00000000E+00
  0.00000000E+00  0.00000000E+00  0.00000000E+00
  0.00000000E+00  0.00000000E+00  0.00000000E+00
  0.00000000E+00  0.00000000E+00  0.00000000E+00
  0.00000000E+00  0.00000000E+00  0.00000000E+00
  0.00000000E+00  0.00000000E+00  0.00000000E+00
  0.00000000E+00  0.00000000E+00  0.00000000E+00
  0.00000000E+00  0.00000000E+00  0.00000000E+00
  0.00000000E+00  0.00000000E+00  0.00000000E+00
  0.00000000E+00  0.00000000E+00  0.00000000E+00
  0.00000000E+00  0.00000000E+00  0.00000000E+00
  0.00000000E+00  0.00000000E+00  0.00000000E+00
  0.00000000E+00  0.00000000E+00  0.00000000E+00
  0.00000000E+00  0.00000000E+00  0.00000000E+00
  0.00000000E+00  0.00000000E+00  0.00000000E+00
  0.00000000E+00  0.00000000E+00  0.00000000E+00
  0.00000000E+00  0.00000000E+00  0.00000000E+00
  0.00000000E+00  0.00000000E+00  0.00000000E+00
  0.00000000E+00  0.00000000E+00  0.00000000E+00
  0.00000000E+00  0.00000000E+00  0.00000000E+00
  0.00000000E+00  0.00000000E+00  0.00000000E+00
  0.00000000E+00  0.00000000E+00  0.00000000E+00
  0.00000000E+00  0.00000000E+00  0.00000000E+00
  0.00000000E+00  0.00000000E+00  0.00000000E+00
  0.00000000E+00  0.00000000E+00  0.00000000E+00
  0.00000000E+00  0.00000000E+00  0.00000000E+00
  0.00000000E+00  0.00000000E+00  0.00000000E+00
  0.00000000E+00  0.00000000E+00  0.00000000E+00
  0.00000000E+00  0.00000000E+00  0.00000000E+00
  0.00000000E+00  0.00000000E+00  0.00000000E+00
  0.00000000E+00  0.00000000E+00  0.00000000E+00
  0.00000000E+00  0.00000000E+00  0.00000000E+00
  0.00000000E+00  0.00000000E+00  0.00000000E+00
  0.00000000E+00  0.00000000E+00  0.00000000E+00
  0.00000000E+00  0.00000000E+00  0.00000000E+00
  0.00000000E+00  0.00000000E+00  0.00000000E+00
  0.00000000E+00  0.00000000E+00  0.00000000E+00
  0.00000000E+00  0.00000000E+00  0.00000000E+00
  0.00000000E+00  0.00000000E+00  0.00000000E+00
  0.00000000E+00  0.00000000E+00  0.00000000E+00
  0.00000000E+00  0.00000000E+00  0.00000000E+00
  0.00000000E+00  0.00000000E+00  0.00000000E+00
  0.00000000E+00  0.00000000E+00  0.00000000E+00
  0.00000000E+00  0.00000000E+00  0.00000000E+00
  0.00000000E+00  0.00000000E+00  0.00000000E+00
  0.00000000E+00  0.00000000E+00  0.00000000E+00
  0.00000000E+00  0.00000000E+00  0.00000000E+00
  0.00000000E+00  0.00000000E+00  0.00000000E+00
  0.00000000E+00  0.00000000E+00  0.00000000E+00
  0.00000000E+00  0.00000000E+00  0.00000000E+00
  0.00000000E+00  0.00000000E+00  0.00000000E+00
  0.00000000E+00  0.00000000E+00  0.00000000E+00
  0.00000000E+00  0.00000000E+00  0.00000000E+00
  0.00000000E+00  0.00000000E+00  0.00000000E+00
  0.00000000E+00  0.00000000E+00  0.00000000E+00
  0.00000000E+00  0.00000000E+00  0.00000000E+00
  0.00000000E+00  0.00000000E+00  0.00000000E+00
  0.00000000E+00  0.00000000E+00  0.00000000E+00
  0.00000000E+00  0.00000000E+00  0.00000000E+00
  0.00000000E+00  0.00000000E+00  0.00000000E+00
  0.00000000E+00  0.00000000E+00  0.00000000E+00
  0.00000000E+00  0.00000000E+00  0.00000000E+00
  0.00000000E+00  0.00000000E+00  0.00000000E+00
  0.00000000E+00  0.00000000E+00  0.00000000E+00
  0.00000000E+00  0.00000000E+00  0.00000000E+00
  0.00000000E+00  0.00000000E+00  0.00000000E+00
  0.00000000E+00  0.00000000E+00  0.00000000E+00
  0.00000000E+00  0.00000000E+00  0.00000000E+00
  0.00000000E+00  0.00000000E+00  0.00000000E+00
  0.00000000E+00  0.00000000E+00  0.00000000E+00
  0.00000000E+00  0.00000000E+00  0.00000000E+00
  0.00000000E+00  0.00000000E+00  0.00000000E+00
  0.00000000E+00  0.00000000E+00  0.00000000E+00
  0.00000000E+00  0.00000000E+00  0.00000000E+00
  0.00000000E+00  0.00000000E+00  0.00000000E+00
  0.00000000E+00  0.00000000E+00  0.00000000E+00
  0.00000000E+00  0.00000000E+00  0.00000000E+00
  0.00000000E+00  0.00000000E+00  0.00000000E+00
  0.00000000E+00  0.00000000E+00  0.00000000E+00
  0.00000000E+00  0.00000000E+00  0.00000000E+00
  0.00000000E+00  0.00000000E+00  0.00000000E+00
  0.00000000E+00  0.00000000E+00  0.00000000E+00
  0.00000000E+00  0.00000000E+00  0.00000000E+00
  0.00000000E+00  0.00000000E+00  0.00000000E+00
  0.00000000E+00  0.00000000E+00  0.00000000E+00
  0.00000000E+00  0.00000000E+00  0.00000000E+00
  0.00000000E+00  0.00000000E+00  0.00000000E+00
  0.00000000E+00  0.00000000E+00  0.00000000E+00
  0.00000000E+00  0.00000000E+00  0.00000000E+00
  0.00000000E+00  0.00000000E+00  0.00000000E+00
  0.00000000E+00  0.00000000E+00  0.00000000E+00
  0.00000000E+00  0.00000000E+00  0.00000000E+00
  0.00000000E+00  0.00000000E+00  0.00000000E+00
  0.00000000E+00  0.00000000E+00  0.00000000E+00
  0.00000000E+00  0.00000000E+00  0.00000000E+00
  0.00000000E+00  0.00000000E+00  0.00000000E+00
  0.00000000E+00  0.00000000E+00  0.00000000E+00
  0.00000000E+00  0.00000000E+00  0.00000000E+00
