ba8 si16                                
   1.00000000000000     
    70.4975749380000991    0.0000000000000000    0.0944621302902711
     0.0000000000000000    6.7052962276297396    0.0000000000000000
     0.0156522314593025    0.0000000000000000   11.4880232632808106
   Ba   Si
    48    96
Direct
  0.0149301627758091  0.2500000000663931  0.7070343295830477
  0.1392535849335090  0.2500000000663931  0.6946782507906237
  0.2662017608340925  0.2500000000663931  0.6944361630448593
  0.3933781433366313  0.2500000000663931  0.6917051010291982
  0.5204932854630034  0.2500000000663931  0.6887345641939601
  0.6476290331415880  0.2500000000663931  0.6878271146029984
  0.1351584821568219  0.7500000176088264  0.3121728854228585
  0.2622942712650571  0.7500000176088264  0.3112654358318971
  0.3894093857764908  0.7500000176088264  0.3082948989966594
  0.5165857958939754  0.7500000176088264  0.3055638369809970
  0.6435339579943190  0.7500000176088264  0.3053217492352332
  0.7678573805719709  0.7500000176088264  0.2929656704428089
  0.0702466317122015  0.7500000176088264  0.1975253728545520
  0.1986268417554209  0.7500000176088264  0.1953503318032419
  0.3258695657623414  0.7500000176088264  0.1931900681000287
  0.4529585219019152  0.7500000176088264  0.1900598117878813
  0.5801361695352498  0.7500000176088264  0.1878309134890606
  0.7067303333242189  0.7500000176088264  0.1872164927818020
  0.0760572095891351  0.2500000000663931  0.8127834866444121
  0.2026513871928171  0.2500000000663931  0.8121690659371527
  0.3298290348261519  0.2500000000663931  0.8099401676383328
  0.4569179633507736  0.2500000000663931  0.8068099113261846
  0.5841606873432199  0.2500000000663931  0.8046496476229718
  0.7125408835862076  0.2500000000663931  0.8024746065716621
  0.0374708575988105  0.7500000176088264  0.9171767781698817
  0.1577916099577945  0.7500000176088264  0.9100880529677109
  0.2846146723723020  0.7500000176088264  0.9083592195357443
  0.4117310854197766  0.7500000176088264  0.9052882172441602
  0.5388543490330847  0.7500000176088264  0.9026257630453988
  0.6664922217994476  0.7500000176088264  0.9025039644908874
  0.1162952727913658  0.2500000000663931  0.0974960149353263
  0.2439332076949819  0.2500000000663931  0.0973742163808147
  0.3710564436933455  0.2500000000663931  0.0947117621820532
  0.4981728567408201  0.2500000000663931  0.0916407598904700
  0.6249958915403826  0.2500000000663931  0.0899119264585029
  0.7453166438848791  0.2500000000663931  0.0828232012563320
  0.0540997440239920  0.2500000000663931  0.4001936286975103
  0.1803696691701945  0.2500000000663931  0.4086469602608982
  0.3075138576996511  0.2500000000663931  0.4079175785935134
  0.4346166628695963  0.2500000000663931  0.4048137914556995
  0.5618113143746050  0.2500000000663931  0.4024150034032151
  0.6884599974801650  0.2500000000663931  0.4001634024345225
  0.0943275040035318  0.7500000176088264  0.5998366387044245
  0.2209762561681744  0.7500000176088264  0.5975850377357317
  0.3481708662290378  0.7500000176088264  0.5951862496832473
  0.4752736990284160  0.7500000176088264  0.5920824625454336
  0.6024178875578725  0.7500000176088264  0.5913530808780489
  0.7286878127040750  0.7500000176088264  0.5998064124414361
  0.0333817664391991  0.0716899374034354  0.1499981004219626
  0.1614660389246139  0.0704816242980915  0.1496726777975439
  0.2887987727086845  0.0703787103256498  0.1484824109455532
  0.4158939553756940  0.0702399914663047  0.1454360560862497
  0.5430456216075006  0.0702452622393025  0.1426947940912223
  0.6693793059973618  0.0698178342617137  0.1414070995930731
  0.1134081816861021  0.9301821568564097  0.8585928799193372
  0.2397419351205592  0.9297547288788208  0.8573051854211877
  0.3668935737374281  0.9297599996518187  0.8545639234261603
  0.4939887564044376  0.9296212807924734  0.8515175685668563
  0.6213214763737889  0.9295183668200321  0.8503273017148660
  0.7494057419518464  0.9283100537146881  0.8500018790904472
  0.0496120577831062  0.9283843343822219  0.6474722619638221
  0.1761735811388635  0.9297686455730992  0.6492803866999872
  0.3033256992918365  0.9297726965463704  0.6483687248771478
  0.4304288145579441  0.9297846736404026  0.6451832556323247
  0.5576085800317777  0.9298718471072511  0.6428286620903706
  0.6847993109306002  0.9305753417563694  0.6424185821929121
  0.0979881974604530  0.0694246493617542  0.3575814178329509
  0.2251789905110029  0.0701281440108723  0.3571713379354857
  0.3523587145551780  0.0702153174777211  0.3548167443935320
  0.4794618574362235  0.0702272945717529  0.3516312751487088
  0.6066139755892037  0.0702313455450246  0.3507196133258695
  0.7331754920376042  0.0716156567359011  0.3525277380620340
  0.1134081816861021  0.5698178430993235  0.8585928799193372
  0.2397419351205592  0.5702452710769124  0.8573051854211877
  0.3668935737374281  0.5702400003039145  0.8545639234261603
  0.4939887564044376  0.5703787191632598  0.8515175685668563
  0.6213214763737889  0.5704816331357011  0.8503273017148660
  0.7494057419518464  0.5716899462410451  0.8500018790904472
  0.0333817664391991  0.4283100537294463  0.1499981004219626
  0.1614660389246139  0.4295183668347899  0.1496726777975439
  0.2887987727086845  0.4296212808072318  0.1484824109455532
  0.4158939553756940  0.4297599996665767  0.1454360560862497
  0.5430456216075006  0.4297547288935789  0.1426947940912223
  0.6693793059973618  0.4301821568711678  0.1414070995930731
  0.0979881974604530  0.4305753417711268  0.3575814178329509
  0.2251789905110029  0.4298718471220092  0.3571713379354857
  0.3523587145551780  0.4297846736551604  0.3548167443935320
  0.4794618574362235  0.4297726965611288  0.3516312751487088
  0.6066139755892037  0.4297686455878568  0.3507196133258695
  0.7331754920376042  0.4283843343969803  0.3525277380620340
  0.0496120577831062  0.5716156655735113  0.6474722619638221
  0.1761735811388635  0.5702313543826339  0.6492803866999872
  0.3033256992918365  0.5702273034093628  0.6483687248771478
  0.4304288145579441  0.5702153263153306  0.6451832556323247
  0.5576085800317777  0.5701281528484821  0.6428286620903706
  0.6847993109306002  0.5694246581993638  0.6424185821929121
  0.0196123831698113  0.7500000176088264  0.6243662069333817
  0.1476839947758230  0.7500000176088264  0.5954084827047705
  0.2748485980015217  0.7500000176088264  0.5940680306267488
  0.4019385513232790  0.7500000176088264  0.5910191384748303
  0.5291529348312249  0.7500000176088264  0.5878867698705021
  0.6564475101259005  0.7500000176088264  0.5872927269137135
  0.1263400051725019  0.2500000000663931  0.4127072730259544
  0.2536345666524712  0.2500000000663931  0.4121132300691657
  0.3808489777898360  0.2500000000663931  0.4089808614648376
  0.5079389311116004  0.2500000000663931  0.4059319693129194
  0.6351035481375316  0.2500000000663931  0.4045915172348973
  0.7631751019215786  0.2500000000663931  0.3756337930062858
  0.0624166144185668  0.2500000000663931  0.0867308684237893
  0.1900326697976244  0.2500000000663931  0.0955475339889652
  0.3172804744742419  0.2500000000663931  0.0931759013262532
  0.4443828702954806  0.2500000000663931  0.0900269995544383
  0.5715273612354370  0.2500000000663931  0.0873742175436448
  0.6976338479344886  0.2500000000663931  0.0862116308992663
  0.0851536397489689  0.7500000176088264  0.9137883485269478
  0.2112601678776854  0.7500000176088264  0.9126257618825691
  0.3384046588176415  0.7500000176088264  0.9099729798717751
  0.4655070546388802  0.7500000176088264  0.9068240780999601
  0.5927549145453872  0.7500000176088264  0.9044524454372488
  0.7203709008798349  0.7500000176088264  0.9132691110024247
  0.0335346516106722  0.2500000000663931  0.9677495707594561
  0.1620832171666248  0.2500000000663931  0.9682174125818057
  0.2892534023026694  0.2500000000663931  0.9668238734991794
  0.4163450578182509  0.2500000000663931  0.9638542334781105
  0.5435078242763430  0.2500000000663931  0.9611008494921640
  0.6703299638230300  0.2500000000663931  0.9590109252467309
  0.1124575514753791  0.7500000176088264  0.0409890901211146
  0.2392797600811429  0.7500000176088264  0.0388991658756815
  0.3664424712803904  0.7500000176088264  0.0361457818897349
  0.4935341544253977  0.7500000176088264  0.0331761418686662
  0.6207043395614424  0.7500000176088264  0.0317826027860399
  0.7492528412424450  0.7500000176088264  0.0322504446083900
  0.0430742755377298  0.7500000176088264  0.4677325439413044
  0.1756952975949932  0.7500000176088264  0.4677759797394018
  0.3028572141040062  0.7500000176088264  0.4667341155452513
  0.4299337376918340  0.7500000176088264  0.4636176842175596
  0.5572250814063722  0.7500000176088264  0.4612273845534633
  0.6844086682786286  0.7500000176088264  0.4605909466949342
  0.0983788815420825  0.2500000000663931  0.5394089711047358
  0.2255624615069750  0.2500000000663931  0.5387725332462064
  0.3528538190362331  0.2500000000663931  0.5363822335821100
  0.4799303150091159  0.2500000000663931  0.5332658022544189
  0.6070922729477799  0.2500000000663931  0.5322239380602686
  0.7397132328533225  0.2500000000663931  0.5322673738583650
 
  0.00000000E+00  0.00000000E+00  0.00000000E+00
  0.00000000E+00  0.00000000E+00  0.00000000E+00
  0.00000000E+00  0.00000000E+00  0.00000000E+00
  0.00000000E+00  0.00000000E+00  0.00000000E+00
  0.00000000E+00  0.00000000E+00  0.00000000E+00
  0.00000000E+00  0.00000000E+00  0.00000000E+00
  0.00000000E+00  0.00000000E+00  0.00000000E+00
  0.00000000E+00  0.00000000E+00  0.00000000E+00
  0.00000000E+00  0.00000000E+00  0.00000000E+00
  0.00000000E+00  0.00000000E+00  0.00000000E+00
  0.00000000E+00  0.00000000E+00  0.00000000E+00
  0.00000000E+00  0.00000000E+00  0.00000000E+00
  0.00000000E+00  0.00000000E+00  0.00000000E+00
  0.00000000E+00  0.00000000E+00  0.00000000E+00
  0.00000000E+00  0.00000000E+00  0.00000000E+00
  0.00000000E+00  0.00000000E+00  0.00000000E+00
  0.00000000E+00  0.00000000E+00  0.00000000E+00
  0.00000000E+00  0.00000000E+00  0.00000000E+00
  0.00000000E+00  0.00000000E+00  0.00000000E+00
  0.00000000E+00  0.00000000E+00  0.00000000E+00
  0.00000000E+00  0.00000000E+00  0.00000000E+00
  0.00000000E+00  0.00000000E+00  0.00000000E+00
  0.00000000E+00  0.00000000E+00  0.00000000E+00
  0.00000000E+00  0.00000000E+00  0.00000000E+00
  0.00000000E+00  0.00000000E+00  0.00000000E+00
  0.00000000E+00  0.00000000E+00  0.00000000E+00
  0.00000000E+00  0.00000000E+00  0.00000000E+00
  0.00000000E+00  0.00000000E+00  0.00000000E+00
  0.00000000E+00  0.00000000E+00  0.00000000E+00
  0.00000000E+00  0.00000000E+00  0.00000000E+00
  0.00000000E+00  0.00000000E+00  0.00000000E+00
  0.00000000E+00  0.00000000E+00  0.00000000E+00
  0.00000000E+00  0.00000000E+00  0.00000000E+00
  0.00000000E+00  0.00000000E+00  0.00000000E+00
  0.00000000E+00  0.00000000E+00  0.00000000E+00
  0.00000000E+00  0.00000000E+00  0.00000000E+00
  0.00000000E+00  0.00000000E+00  0.00000000E+00
  0.00000000E+00  0.00000000E+00  0.00000000E+00
  0.00000000E+00  0.00000000E+00  0.00000000E+00
  0.00000000E+00  0.00000000E+00  0.00000000E+00
  0.00000000E+00  0.00000000E+00  0.00000000E+00
  0.00000000E+00  0.00000000E+00  0.00000000E+00
  0.00000000E+00  0.00000000E+00  0.00000000E+00
  0.00000000E+00  0.00000000E+00  0.00000000E+00
  0.00000000E+00  0.00000000E+00  0.00000000E+00
  0.00000000E+00  0.00000000E+00  0.00000000E+00
  0.00000000E+00  0.00000000E+00  0.00000000E+00
  0.00000000E+00  0.00000000E+00  0.00000000E+00
  0.00000000E+00  0.00000000E+00  0.00000000E+00
  0.00000000E+00  0.00000000E+00  0.00000000E+00
  0.00000000E+00  0.00000000E+00  0.00000000E+00
  0.00000000E+00  0.00000000E+00  0.00000000E+00
  0.00000000E+00  0.00000000E+00  0.00000000E+00
  0.00000000E+00  0.00000000E+00  0.00000000E+00
  0.00000000E+00  0.00000000E+00  0.00000000E+00
  0.00000000E+00  0.00000000E+00  0.00000000E+00
  0.00000000E+00  0.00000000E+00  0.00000000E+00
  0.00000000E+00  0.00000000E+00  0.00000000E+00
  0.00000000E+00  0.00000000E+00  0.00000000E+00
  0.00000000E+00  0.00000000E+00  0.00000000E+00
  0.00000000E+00  0.00000000E+00  0.00000000E+00
  0.00000000E+00  0.00000000E+00  0.00000000E+00
  0.00000000E+00  0.00000000E+00  0.00000000E+00
  0.00000000E+00  0.00000000E+00  0.00000000E+00
  0.00000000E+00  0.00000000E+00  0.00000000E+00
  0.00000000E+00  0.00000000E+00  0.00000000E+00
  0.00000000E+00  0.00000000E+00  0.00000000E+00
  0.00000000E+00  0.00000000E+00  0.00000000E+00
  0.00000000E+00  0.00000000E+00  0.00000000E+00
  0.00000000E+00  0.00000000E+00  0.00000000E+00
  0.00000000E+00  0.00000000E+00  0.00000000E+00
  0.00000000E+00  0.00000000E+00  0.00000000E+00
  0.00000000E+00  0.00000000E+00  0.00000000E+00
  0.00000000E+00  0.00000000E+00  0.00000000E+00
  0.00000000E+00  0.00000000E+00  0.00000000E+00
  0.00000000E+00  0.00000000E+00  0.00000000E+00
  0.00000000E+00  0.00000000E+00  0.00000000E+00
  0.00000000E+00  0.00000000E+00  0.00000000E+00
  0.00000000E+00  0.00000000E+00  0.00000000E+00
  0.00000000E+00  0.00000000E+00  0.00000000E+00
  0.00000000E+00  0.00000000E+00  0.00000000E+00
  0.00000000E+00  0.00000000E+00  0.00000000E+00
  0.00000000E+00  0.00000000E+00  0.00000000E+00
  0.00000000E+00  0.00000000E+00  0.00000000E+00
  0.00000000E+00  0.00000000E+00  0.00000000E+00
  0.00000000E+00  0.00000000E+00  0.00000000E+00
  0.00000000E+00  0.00000000E+00  0.00000000E+00
  0.00000000E+00  0.00000000E+00  0.00000000E+00
  0.00000000E+00  0.00000000E+00  0.00000000E+00
  0.00000000E+00  0.00000000E+00  0.00000000E+00
  0.00000000E+00  0.00000000E+00  0.00000000E+00
  0.00000000E+00  0.00000000E+00  0.00000000E+00
  0.00000000E+00  0.00000000E+00  0.00000000E+00
  0.00000000E+00  0.00000000E+00  0.00000000E+00
  0.00000000E+00  0.00000000E+00  0.00000000E+00
  0.00000000E+00  0.00000000E+00  0.00000000E+00
  0.00000000E+00  0.00000000E+00  0.00000000E+00
  0.00000000E+00  0.00000000E+00  0.00000000E+00
  0.00000000E+00  0.00000000E+00  0.00000000E+00
  0.00000000E+00  0.00000000E+00  0.00000000E+00
  0.00000000E+00  0.00000000E+00  0.00000000E+00
  0.00000000E+00  0.00000000E+00  0.00000000E+00
  0.00000000E+00  0.00000000E+00  0.00000000E+00
  0.00000000E+00  0.00000000E+00  0.00000000E+00
  0.00000000E+00  0.00000000E+00  0.00000000E+00
  0.00000000E+00  0.00000000E+00  0.00000000E+00
  0.00000000E+00  0.00000000E+00  0.00000000E+00
  0.00000000E+00  0.00000000E+00  0.00000000E+00
  0.00000000E+00  0.00000000E+00  0.00000000E+00
  0.00000000E+00  0.00000000E+00  0.00000000E+00
  0.00000000E+00  0.00000000E+00  0.00000000E+00
  0.00000000E+00  0.00000000E+00  0.00000000E+00
  0.00000000E+00  0.00000000E+00  0.00000000E+00
  0.00000000E+00  0.00000000E+00  0.00000000E+00
  0.00000000E+00  0.00000000E+00  0.00000000E+00
  0.00000000E+00  0.00000000E+00  0.00000000E+00
  0.00000000E+00  0.00000000E+00  0.00000000E+00
  0.00000000E+00  0.00000000E+00  0.00000000E+00
  0.00000000E+00  0.00000000E+00  0.00000000E+00
  0.00000000E+00  0.00000000E+00  0.00000000E+00
  0.00000000E+00  0.00000000E+00  0.00000000E+00
  0.00000000E+00  0.00000000E+00  0.00000000E+00
  0.00000000E+00  0.00000000E+00  0.00000000E+00
  0.00000000E+00  0.00000000E+00  0.00000000E+00
  0.00000000E+00  0.00000000E+00  0.00000000E+00
  0.00000000E+00  0.00000000E+00  0.00000000E+00
  0.00000000E+00  0.00000000E+00  0.00000000E+00
  0.00000000E+00  0.00000000E+00  0.00000000E+00
  0.00000000E+00  0.00000000E+00  0.00000000E+00
  0.00000000E+00  0.00000000E+00  0.00000000E+00
  0.00000000E+00  0.00000000E+00  0.00000000E+00
  0.00000000E+00  0.00000000E+00  0.00000000E+00
  0.00000000E+00  0.00000000E+00  0.00000000E+00
  0.00000000E+00  0.00000000E+00  0.00000000E+00
  0.00000000E+00  0.00000000E+00  0.00000000E+00
  0.00000000E+00  0.00000000E+00  0.00000000E+00
  0.00000000E+00  0.00000000E+00  0.00000000E+00
  0.00000000E+00  0.00000000E+00  0.00000000E+00
  0.00000000E+00  0.00000000E+00  0.00000000E+00
  0.00000000E+00  0.00000000E+00  0.00000000E+00
  0.00000000E+00  0.00000000E+00  0.00000000E+00
  0.00000000E+00  0.00000000E+00  0.00000000E+00
  0.00000000E+00  0.00000000E+00  0.00000000E+00
  0.00000000E+00  0.00000000E+00  0.00000000E+00
