C                                       
   1.00000000000000     
     2.4685608973937851    0.0000000000000000   -0.0000000000000000
    -1.2342804486968926    2.1378364479416114    0.0000000000000000
    -0.0000000000000000    0.0000000000000000    6.7361771700416595
   C 
     4
Selective Dynamics
Direct
  0.0000000000000000 -0.0000000000000000 -0.0000000000000000 T T F
 -0.0000000000000000 -0.0000000000000000  0.5000000000597353 T T F
  0.3333333432379320  0.6666666864758639  0.0000000000000000 T T F
  0.6666666270498567  0.3333333133830934  0.5000000000597353 T T F
