sr8 si16                                
   1.00000000000000     
     8.5737608983140170    0.0000000000000000    0.0000000000000000
     0.0000000000000000    6.4135453054205858    0.0000000000000000
     0.0000000000000000    0.0000000000000000   11.0034384506040706
   Sr   Si
     8    16
Direct
  0.0148569757101629  0.2500000000663931  0.6919412810681578
  0.9851430275530685  0.7500000176088264  0.3080587189576988
  0.4851430275863646  0.7500000176088264  0.1919412193424932
  0.5148569723470363  0.2500000000663931  0.8080587600837206
  0.1578452656039119  0.7500000176088264  0.9065451490744905
  0.8421547344404898  0.2500000000663931  0.0934548303517232
  0.3421547343627919  0.2500000000663931  0.4065452312877454
  0.6578452655706089  0.7500000176088264  0.5934548098512011
  0.1923211057947595  0.0628941139159298  0.1491535268045110
  0.8076788942496352  0.9371058772021937  0.8508464527078987
  0.3076788941719373  0.9371058772021937  0.6491535473308898
  0.6923211057614634  0.0628941139159298  0.3508464526949668
  0.8076788942496352  0.5628941227535394  0.8508464527078987
  0.1923211057947595  0.4371058772169516  0.1491535268045110
  0.6923211057614634  0.4371058772169516  0.3508464526949668
  0.3076788941719373  0.5628941227535394  0.6491535473308898
  0.0749871739050703  0.7500000176088264  0.5911163015167503
  0.9250128062713416  0.2500000000663931  0.4088836984229176
  0.4250128327212950  0.2500000000663931  0.0911162398772745
  0.5749871937397570  0.7500000176088264  0.9088837395489392
  0.1963190547910746  0.2500000000663931  0.9603572056242463
  0.8036809320449986  0.7500000176088264  0.0396428097435993
  0.3036809319673007  0.7500000176088264  0.4603571234713237
  0.6963190679661001  0.2500000000663931  0.5396427943283463
 
  0.00000000E+00  0.00000000E+00  0.00000000E+00
  0.00000000E+00  0.00000000E+00  0.00000000E+00
  0.00000000E+00  0.00000000E+00  0.00000000E+00
  0.00000000E+00  0.00000000E+00  0.00000000E+00
  0.00000000E+00  0.00000000E+00  0.00000000E+00
  0.00000000E+00  0.00000000E+00  0.00000000E+00
  0.00000000E+00  0.00000000E+00  0.00000000E+00
  0.00000000E+00  0.00000000E+00  0.00000000E+00
  0.00000000E+00  0.00000000E+00  0.00000000E+00
  0.00000000E+00  0.00000000E+00  0.00000000E+00
  0.00000000E+00  0.00000000E+00  0.00000000E+00
  0.00000000E+00  0.00000000E+00  0.00000000E+00
  0.00000000E+00  0.00000000E+00  0.00000000E+00
  0.00000000E+00  0.00000000E+00  0.00000000E+00
  0.00000000E+00  0.00000000E+00  0.00000000E+00
  0.00000000E+00  0.00000000E+00  0.00000000E+00
  0.00000000E+00  0.00000000E+00  0.00000000E+00
  0.00000000E+00  0.00000000E+00  0.00000000E+00
  0.00000000E+00  0.00000000E+00  0.00000000E+00
  0.00000000E+00  0.00000000E+00  0.00000000E+00
  0.00000000E+00  0.00000000E+00  0.00000000E+00
  0.00000000E+00  0.00000000E+00  0.00000000E+00
  0.00000000E+00  0.00000000E+00  0.00000000E+00
  0.00000000E+00  0.00000000E+00  0.00000000E+00
