ba8 si8 c8                              
   1.00000000000000     
     8.6089010775514723   -0.0000000000000000    0.0000000000000000
    -0.0000000000000000    5.7712919868060242    0.0000000000000000
     0.0000000000000000    0.0000000000000000   11.3618065860543194
   Ba   Si   C 
     8     8     8
Direct
 -0.0265504888350630  0.2500000000663931  0.6473435969662030
  0.0265504920982945  0.7500000176088264  0.3526564030596534
  0.5265504921315906  0.7500000176088264  0.1473435352405386
  0.4734495078018103  0.2500000000663931  0.8526564441856753
  0.1247370344207903  0.7500000176088264  0.9217921389058539
  0.8752629656236115  0.2500000000663931  0.0782078405203598
  0.3752629655459135  0.2500000000663931  0.4217922211191089
  0.6247370343874872  0.7500000176088264  0.5782078200198377
  0.2114499547254103  0.0477711532032127  0.1608514119732790
  0.7885500453189846  0.9522288379149104  0.8391485675391309
  0.2885500452412864  0.9522288379149104  0.6608514324996576
  0.7114499546921140  0.0477711532032127  0.3391485675261985
  0.7885500453189846  0.5477711620408228  0.8391485675391309
  0.2114499547254103  0.4522288379296688  0.1608514119732790
  0.7114499546921140  0.4522288379296688  0.3391485675261985
  0.2885500452412864  0.5477711620408228  0.6608514324996576
  0.1432753646497607  0.7500000176088264  0.5732677881012186
  0.8567246155266509  0.2500000000663931  0.4267322118384496
  0.3567246419766049  0.2500000000663931  0.0732677264617426
  0.6432753844844478  0.7500000176088264  0.9267322529644709
  0.2036202850347790  0.2500000000663931  0.0204795527186824
  0.7963797018012945  0.7500000176088264 -0.0204795373508365
  0.2963797017235962  0.7500000176088264  0.5204794705657594
  0.7036202982098042  0.2500000000663931  0.4795204472339104
 
  0.00000000E+00  0.00000000E+00  0.00000000E+00
  0.00000000E+00  0.00000000E+00  0.00000000E+00
  0.00000000E+00  0.00000000E+00  0.00000000E+00
  0.00000000E+00  0.00000000E+00  0.00000000E+00
  0.00000000E+00  0.00000000E+00  0.00000000E+00
  0.00000000E+00  0.00000000E+00  0.00000000E+00
  0.00000000E+00  0.00000000E+00  0.00000000E+00
  0.00000000E+00  0.00000000E+00  0.00000000E+00
  0.00000000E+00  0.00000000E+00  0.00000000E+00
  0.00000000E+00  0.00000000E+00  0.00000000E+00
  0.00000000E+00  0.00000000E+00  0.00000000E+00
  0.00000000E+00  0.00000000E+00  0.00000000E+00
  0.00000000E+00  0.00000000E+00  0.00000000E+00
  0.00000000E+00  0.00000000E+00  0.00000000E+00
  0.00000000E+00  0.00000000E+00  0.00000000E+00
  0.00000000E+00  0.00000000E+00  0.00000000E+00
  0.00000000E+00  0.00000000E+00  0.00000000E+00
  0.00000000E+00  0.00000000E+00  0.00000000E+00
  0.00000000E+00  0.00000000E+00  0.00000000E+00
  0.00000000E+00  0.00000000E+00  0.00000000E+00
  0.00000000E+00  0.00000000E+00  0.00000000E+00
  0.00000000E+00  0.00000000E+00  0.00000000E+00
  0.00000000E+00  0.00000000E+00  0.00000000E+00
  0.00000000E+00  0.00000000E+00  0.00000000E+00
