ba8 si16                                
1.0
       24.0094680786         0.0000000000         0.0000000000
        0.0000000000         6.7778496742         0.0000000000
        0.0000000000         0.0000000000        11.6021432877
   Ba   Si
    8   16
Selective Dynamics
Cartesian
     0.136700655         1.694462419         8.196952887 F T T
     9.672767373         5.083387256         3.405190746 F T T
     4.368033359         5.083387256         2.171947097 F T T
     5.441434669         1.694462419         9.430195672 F T T
     1.435289350         5.083387256        10.670764648 F T T
     8.374178409         1.694462419         0.931378207 F T T
     3.069444753         1.694462419         4.628136476 F T T
     6.740023275         5.083387256         6.974007157 F T T
     1.750269406         0.493607051         1.701190679 F T T
     8.059198622         6.284242573         9.900952263 F T T
     2.754464608         6.287379970         7.639286802 F T T
     7.05500342         0.490469755         3.962856486 F T T
     8.059198622         3.882531938         9.900952263 F T T
     1.750269406         2.895317736         1.701190679 F T T
     7.05500342         2.898454931         3.962856486 F T T
     2.754464608         3.879394542         7.639286802 F T T
     0.746929942         5.083387256         6.956444766 F T T
     9.062538041         1.694462419         4.645698521 F T T
     3.757804027         1.694462419         1.004131412 F T T
     6.051664001         5.083387256         10.598011703 F T T
     1.781117855         1.694462419        11.197189649 F T T
     8.028350352         5.083387256         0.404953941 F T T
     2.723616159         5.083387256         5.530275006 F T T
     7.08585169         1.694462419         6.071867590 F T T
