ba8 si16                                
   1.00000000000000     
     9.8094680786000001    0.0000000000000000    0.0000000000000000
     0.0000000000000000    6.7778496741999996    0.0000000000000000
     0.0000000000000000    0.0000000000000000   11.6021432877000006
   Ba   Si
     8    16
Selective Dynamics
Direct
  0.0142753543980552  0.2500000000663931  0.6916982274238003 F T T
  0.9857246488651762  0.7500000176088264  0.3083017726020563 F T T
  0.4857246488984722  0.7500000176088264  0.1916981656981358 F T T
  0.5142753510349286  0.2500000000663931  0.8083018137280781 F T T
  0.1578234417756186  0.7500000176088264  0.9062799875533678 F T T
  0.8421765582687833  0.2500000000663931  0.0937199918728461 F T T
  0.3421765581910853  0.2500000000663931  0.4062800697666226 F T T
  0.6578234417423153  0.7500000176088264  0.5937199713723238 F T T
  0.1939009835753098  0.0723445003105330  0.1460709733281507 F T T
  0.8060990164690851  0.9276554908075905  0.8539290061842589 F T T
  0.3060990163913870  0.9276554908075905  0.6460709938545296 F T T
  0.6939009835420136  0.0723445003105330  0.3539290061713271 F T T
  0.8060990164690851  0.5723445091481427  0.8539290061842589 F T T
  0.1939009835753098  0.4276554908223485  0.1460709733281507 F T T
  0.6939009835420136  0.4276554908223485  0.3539290061713271 F T T
  0.3060990163913870  0.5723445091481427  0.6460709938545296 F T T
  0.0844904917395198  0.7500000176088264  0.5907158291468013 F T T
  0.9155094884368919  0.2500000000663931  0.4092841707928663 F T T
  0.4155095148868453  0.2500000000663931  0.0907157675073257 F T T
  0.5844905115742067  0.7500000176088264  0.9092842119188882 F T T
  0.1970616927844991  0.2500000000663931  0.9664038623814161 F T T
  0.8029382940515740  0.7500000176088264  0.0335961529864297 F T T
  0.3029382939738762  0.7500000176088264  0.4664037802284933 F T T
  0.6970617059595247  0.2500000000663931  0.5335961375711765 F T T
