ba8 si16                                
   1.00000000000000     
    24.0094680786000012    0.0000000000000000    0.0000000000000000
     0.0000000000000000    6.7778496741999996    0.0000000000000000
     0.0000000000000000    0.0000000000000000   11.6021432877000006
   Ba   Si
     8    16
Selective dynamics
Direct
  0.0056936146836932  0.2500000000663931  0.6393609968092551   F   T   T
  0.3279026183431810  0.7500000176088264  0.3606390032166014   F   T   T
  0.1819296202106742  0.7500000176088264  0.1829197317494883   F   T   T
  0.1516666115666965  0.2500000000663931  0.8170802476767258   F   T   T
  0.0597801408303269  0.7500000176088264  0.9658411268055447   F   T   T
  0.2738160909886886  0.2500000000663931  0.0341588526206691   F   T   T
  0.1278430928145298  0.2500000000663931  0.4340209213563459   F   T   T
  0.2057531389628409  0.7500000176088264  0.5659791197826000   F   T   T
  0.0728991332615152  0.0728850841806413  0.1962520795244497   F   T   T
  0.2606970985575003  0.9271149069374819  0.8037478999879601   F   T   T
  0.1147241003833415  0.9280331803912267  0.6453967122262934   F   T   T
  0.2188721313940221  0.0719668107268964  0.3546032877995635   F   T   T
  0.2606970985575003  0.5728850930182513  0.8037478999879601   F   T   T
  0.0728991332615152  0.4271149069522400  0.1962520795244497   F   T   T
  0.2188721313940221  0.4280331804059850  0.3546032877995635   F   T   T
  0.1147241003833415  0.5719668195645065  0.6453967122262934   F   T   T
  0.0311098080788312  0.7500000176088264  0.5684814769191889   F   T   T
  0.3024864162848004  0.2500000000663931  0.4315185230204787   F   T   T
  0.1565134280650469  0.2500000000663931  0.1365601029147439   F   T   T
  0.1770828136667291  0.7500000176088264  0.8634398765114697   F   T   T
  0.0741839757202953  0.2500000000663931  0.0168947484468507   F   T   T
  0.2594122511423507  0.7500000176088264 -0.0168947330790050   F   T   T
  0.1134392529681918  0.7500000176088264  0.4450775864642566   F   T   T
  0.2201569788091788  0.2500000000663931  0.5549223313354131   F   T   T
 
  0.00000000E+00  0.00000000E+00  0.00000000E+00
  0.00000000E+00  0.00000000E+00  0.00000000E+00
  0.00000000E+00  0.00000000E+00  0.00000000E+00
  0.00000000E+00  0.00000000E+00  0.00000000E+00
  0.00000000E+00  0.00000000E+00  0.00000000E+00
  0.00000000E+00  0.00000000E+00  0.00000000E+00
  0.00000000E+00  0.00000000E+00  0.00000000E+00
  0.00000000E+00  0.00000000E+00  0.00000000E+00
  0.00000000E+00  0.00000000E+00  0.00000000E+00
  0.00000000E+00  0.00000000E+00  0.00000000E+00
  0.00000000E+00  0.00000000E+00  0.00000000E+00
  0.00000000E+00  0.00000000E+00  0.00000000E+00
  0.00000000E+00  0.00000000E+00  0.00000000E+00
  0.00000000E+00  0.00000000E+00  0.00000000E+00
  0.00000000E+00  0.00000000E+00  0.00000000E+00
  0.00000000E+00  0.00000000E+00  0.00000000E+00
  0.00000000E+00  0.00000000E+00  0.00000000E+00
  0.00000000E+00  0.00000000E+00  0.00000000E+00
  0.00000000E+00  0.00000000E+00  0.00000000E+00
  0.00000000E+00  0.00000000E+00  0.00000000E+00
  0.00000000E+00  0.00000000E+00  0.00000000E+00
  0.00000000E+00  0.00000000E+00  0.00000000E+00
  0.00000000E+00  0.00000000E+00  0.00000000E+00
  0.00000000E+00  0.00000000E+00  0.00000000E+00
