ba8 si16                                
   1.00000000000000     
    24.0094680786000012    0.0000000000000000    0.0000000000000000
     0.0000000000000000    6.7778496741999996    0.0000000000000000
     0.0000000000000000    0.0000000000000000   11.6021432877000006
   Ba   Si
     8    16
Selective dynamics
Direct
  0.0056936146836932  0.2500000000663931  0.6666853634596333   F   T   T
  0.3320676418944188  0.7500000176088264  0.3333146365662239   F   T   T
  0.1819296202106742  0.7500000176088264  0.1849704601386138   F   T   T
  0.1558316351179272  0.2500000000663931  0.8150295192876004   F   T   T
  0.0597801408303269  0.7500000176088264  0.9534580412873209   F   T   T
  0.2779811145399265  0.2500000000663931  0.0465419381388928   F   T   T
  0.1278430928145298  0.2500000000663931  0.4263036588574302   F   T   T
  0.2099181625140716  0.7500000176088264  0.5736963822815161   F   T   T
  0.0728991332615152  0.0729684669134722  0.1851089590667922   F   T   T
  0.2648621221087382  0.9270315242046510  0.8148910204456176   F   T   T
  0.1147241003833415  0.9275822144460396  0.6457892373536065   F   T   T
  0.2230371549452599  0.0724177766720838  0.3542107626722509   F   T   T
  0.2648621221087382  0.5729684757510822  0.8148910204456176   F   T   T
  0.0728991332615152  0.4270315242194093  0.1851089590667922   F   T   T
  0.2230371549452599  0.4275822144607977  0.3542107626722509   F   T   T
  0.1147241003833415  0.5724177855096936  0.6457892373536065   F   T   T
  0.0311098080788312  0.7500000176088264  0.5767864526553096   F   T   T
  0.3066514398360312  0.2500000000663931  0.4232135472843583   F   T   T
  0.1565134280650469  0.2500000000663931  0.1231042205580366   F   T   T
  0.1812478372179669  0.7500000176088264  0.8768957588681768   F   T   T
  0.0741839757202953  0.2500000000663931  0.0062562780665673   F   T   T
  0.2635772746935814  0.7500000176088264 -0.0062562626987218   F   T   T
  0.1134392529681918  0.7500000176088264  0.4542432200878448   F   T   T
  0.2243220023604167  0.2500000000663931  0.5457566977118250   F   T   T
 
  0.00000000E+00  0.00000000E+00  0.00000000E+00
  0.00000000E+00  0.00000000E+00  0.00000000E+00
  0.00000000E+00  0.00000000E+00  0.00000000E+00
  0.00000000E+00  0.00000000E+00  0.00000000E+00
  0.00000000E+00  0.00000000E+00  0.00000000E+00
  0.00000000E+00  0.00000000E+00  0.00000000E+00
  0.00000000E+00  0.00000000E+00  0.00000000E+00
  0.00000000E+00  0.00000000E+00  0.00000000E+00
  0.00000000E+00  0.00000000E+00  0.00000000E+00
  0.00000000E+00  0.00000000E+00  0.00000000E+00
  0.00000000E+00  0.00000000E+00  0.00000000E+00
  0.00000000E+00  0.00000000E+00  0.00000000E+00
  0.00000000E+00  0.00000000E+00  0.00000000E+00
  0.00000000E+00  0.00000000E+00  0.00000000E+00
  0.00000000E+00  0.00000000E+00  0.00000000E+00
  0.00000000E+00  0.00000000E+00  0.00000000E+00
  0.00000000E+00  0.00000000E+00  0.00000000E+00
  0.00000000E+00  0.00000000E+00  0.00000000E+00
  0.00000000E+00  0.00000000E+00  0.00000000E+00
  0.00000000E+00  0.00000000E+00  0.00000000E+00
  0.00000000E+00  0.00000000E+00  0.00000000E+00
  0.00000000E+00  0.00000000E+00  0.00000000E+00
  0.00000000E+00  0.00000000E+00  0.00000000E+00
  0.00000000E+00  0.00000000E+00  0.00000000E+00
