ba8 si16                                
   1.00000000000000     
    24.0094680786000012    0.0000000000000000    0.0000000000000000
     0.0000000000000000    6.7778496741999996    0.0000000000000000
     0.0000000000000000    0.0000000000000000   11.6021432877000006
   Ba   Si
     8    16
Selective dynamics
Direct
  0.0056936146836932  0.2500000000663931  0.7022023391698047   F   T   T
  0.3487277360993559  0.7500000176088264  0.2977976608560520   F   T   T
  0.1819296202106742  0.7500000176088264  0.1882116902437424   F   T   T
  0.1724917293228714  0.2500000000663931  0.8117882891824713   F   T   T
  0.0597801408303269  0.7500000176088264  0.9269396786980587   F   T   T
  0.2946412087448635  0.2500000000663931  0.0730603007281551   F   T   T
  0.1278430928145298  0.2500000000663931  0.4073465333032547   F   T   T
  0.2265782567190158  0.7500000176088264  0.5926535078356919   F   T   T
  0.0728991332615152  0.0727089104519149  0.1587328902384421   F   T   T
  0.2815222163136823  0.9272910806662082  0.8412670892739681   F   T   T
  0.1147241003833415  0.9264886011347430  0.6513330347573516   F   T   T
  0.2396972491502041  0.0735113899833807  0.3486669652685054   F   T   T
  0.2815222163136823  0.5727089192895249  0.8412670892739681   F   T   T
  0.0728991332615152  0.4272910806809667  0.1587328902384421   F   T   T
  0.2396972491502041  0.4264886011495005  0.3486669652685054   F   T   T
  0.1147241003833415  0.5735113988209902  0.6513330347573516   F   T   T
  0.0311098080788312  0.7500000176088264  0.5911863067515908   F   T   T
  0.3233115340409753  0.2500000000663931  0.4088136931880773   F   T   T
  0.1565134280650469  0.2500000000663931  0.0978676888385303   F   T   T
  0.1979079314229040  0.7500000176088264  0.9021322905876836   F   T   T
  0.0741839757202953  0.2500000000663931  0.9790225523660295   F   T   T
  0.2802373688985256  0.7500000176088264  0.0209774630018167   F   T   T
  0.1134392529681918  0.7500000176088264  0.4689077091061759   F   T   T
  0.2409820965653537  0.2500000000663931  0.5310922086934943   F   T   T
 
  0.00000000E+00  0.00000000E+00  0.00000000E+00
  0.00000000E+00  0.00000000E+00  0.00000000E+00
  0.00000000E+00  0.00000000E+00  0.00000000E+00
  0.00000000E+00  0.00000000E+00  0.00000000E+00
  0.00000000E+00  0.00000000E+00  0.00000000E+00
  0.00000000E+00  0.00000000E+00  0.00000000E+00
  0.00000000E+00  0.00000000E+00  0.00000000E+00
  0.00000000E+00  0.00000000E+00  0.00000000E+00
  0.00000000E+00  0.00000000E+00  0.00000000E+00
  0.00000000E+00  0.00000000E+00  0.00000000E+00
  0.00000000E+00  0.00000000E+00  0.00000000E+00
  0.00000000E+00  0.00000000E+00  0.00000000E+00
  0.00000000E+00  0.00000000E+00  0.00000000E+00
  0.00000000E+00  0.00000000E+00  0.00000000E+00
  0.00000000E+00  0.00000000E+00  0.00000000E+00
  0.00000000E+00  0.00000000E+00  0.00000000E+00
  0.00000000E+00  0.00000000E+00  0.00000000E+00
  0.00000000E+00  0.00000000E+00  0.00000000E+00
  0.00000000E+00  0.00000000E+00  0.00000000E+00
  0.00000000E+00  0.00000000E+00  0.00000000E+00
  0.00000000E+00  0.00000000E+00  0.00000000E+00
  0.00000000E+00  0.00000000E+00  0.00000000E+00
  0.00000000E+00  0.00000000E+00  0.00000000E+00
  0.00000000E+00  0.00000000E+00  0.00000000E+00
