ba8 si16                                
   1.00000000000000     
    24.0094680786000012    0.0000000000000000    0.0000000000000000
     0.0000000000000000    6.7778496741999996    0.0000000000000000
     0.0000000000000000    0.0000000000000000   11.6021432877000006
   Ba   Si
     8    16
Selective dynamics
Direct
  0.0056936146836932  0.2500000000663931  0.6934222135285039   F   T   T
  0.3403976889968874  0.7500000176088264  0.3065777864973533   F   T   T
  0.1819296202106742  0.7500000176088264  0.1875073086424343   F   T   T
  0.1641616822204028  0.2500000000663931  0.8124926707837793   F   T   T
  0.0597801408303269  0.7500000176088264  0.9341578146044612   F   T   T
  0.2863111616423950  0.2500000000663931  0.0658421648217526   F   T   T
  0.1278430928145298  0.2500000000663931  0.4144376664068449   F   T   T
  0.2182482096165401  0.7500000176088264  0.5855623747321016   F   T   T
  0.0728991332615152  0.0728111781348569  0.1683641604909625   F   T   T
  0.2731921692112067  0.9271888129832667  0.8316358190214469   F   T   T
  0.1147241003833415  0.9267155551652709  0.6484991502422787   F   T   T
  0.2313672020477284  0.0732844359528525  0.3515008497835784   F   T   T
  0.2731921692112067  0.5728111869724665  0.8316358190214469   F   T   T
  0.0728991332615152  0.4271888129980245  0.1683641604909625   F   T   T
  0.2313672020477284  0.4267155551800289  0.3515008497835784   F   T   T
  0.1147241003833415  0.5732844447904623  0.6484991502422787   F   T   T
  0.0311098080788312  0.7500000176088264  0.5863320007999604   F   T   T
  0.3149814869385068  0.2500000000663931  0.4136679991397075   F   T   T
  0.1565134280650469  0.2500000000663931  0.1056027634969792   F   T   T
  0.1895778843204354  0.7500000176088264  0.8943972159292347   F   T   T
  0.0741839757202953  0.2500000000663931  0.9895318435334757   F   T   T
  0.2719073217960570  0.7500000176088264  0.0104681718343702   F   T   T
  0.1134392529681918  0.7500000176088264  0.4638405635184693   F   T   T
  0.2326520494628852  0.2500000000663931  0.5361593542812011   F   T   T
 
  0.00000000E+00  0.00000000E+00  0.00000000E+00
  0.00000000E+00  0.00000000E+00  0.00000000E+00
  0.00000000E+00  0.00000000E+00  0.00000000E+00
  0.00000000E+00  0.00000000E+00  0.00000000E+00
  0.00000000E+00  0.00000000E+00  0.00000000E+00
  0.00000000E+00  0.00000000E+00  0.00000000E+00
  0.00000000E+00  0.00000000E+00  0.00000000E+00
  0.00000000E+00  0.00000000E+00  0.00000000E+00
  0.00000000E+00  0.00000000E+00  0.00000000E+00
  0.00000000E+00  0.00000000E+00  0.00000000E+00
  0.00000000E+00  0.00000000E+00  0.00000000E+00
  0.00000000E+00  0.00000000E+00  0.00000000E+00
  0.00000000E+00  0.00000000E+00  0.00000000E+00
  0.00000000E+00  0.00000000E+00  0.00000000E+00
  0.00000000E+00  0.00000000E+00  0.00000000E+00
  0.00000000E+00  0.00000000E+00  0.00000000E+00
  0.00000000E+00  0.00000000E+00  0.00000000E+00
  0.00000000E+00  0.00000000E+00  0.00000000E+00
  0.00000000E+00  0.00000000E+00  0.00000000E+00
  0.00000000E+00  0.00000000E+00  0.00000000E+00
  0.00000000E+00  0.00000000E+00  0.00000000E+00
  0.00000000E+00  0.00000000E+00  0.00000000E+00
  0.00000000E+00  0.00000000E+00  0.00000000E+00
  0.00000000E+00  0.00000000E+00  0.00000000E+00
