ba8 si16                                
   1.00000000000000     
    24.0094680786000012    0.0000000000000000    0.0000000000000000
     0.0000000000000000    6.7778496741999996    0.0000000000000000
     0.0000000000000000    0.0000000000000000   11.6021432877000006
   Ba   Si
     8    16
Selective dynamics
Direct
  0.0056936146836932  0.2500000000663931  0.7054534478894026   F   T   T
  0.3570577832018316  0.7500000176088264  0.2945465521364542   F   T   T
  0.1819296202106742  0.7500000176088264  0.1880232022184450   F   T   T
  0.1808217764253399  0.2500000000663931  0.8119767772077687   F   T   T
  0.0597801408303269  0.7500000176088264  0.9228646001262543   F   T   T
  0.3029712558473392  0.2500000000663931  0.0771353792999591   F   T   T
  0.1278430928145298  0.2500000000663931  0.4029859461800339   F   T   T
  0.2349083038214843  0.7500000176088264  0.5970140949589128   F   T   T
  0.0728991332615152  0.0727002842440103  0.1521094451439256   F   T   T
  0.2898522634161509  0.9272997068741131  0.8478905343684841   F   T   T
  0.1147241003833415  0.9267818800947600  0.6544164367551110   F   T   T
  0.2480272962526726  0.0732181110233632  0.3455835632707455   F   T   T
  0.2898522634161509  0.5727002930816201  0.8478905343684841   F   T   T
  0.0728991332615152  0.4272997068888713  0.1521094451439256   F   T   T
  0.2480272962526726  0.4267818801095181  0.3455835632707455   F   T   T
  0.1147241003833415  0.5732181198609732  0.6544164367551110   F   T   T
  0.0311098080788312  0.7500000176088264  0.5953026259295703   F   T   T
  0.3316415811434439  0.2500000000663931  0.4046973740100973   F   T   T
  0.1565134280650469  0.2500000000663931  0.0922335067007842   F   T   T
  0.2062379785253725  0.7500000176088264  0.9077664727254297   F   T   T
  0.0741839757202953  0.2500000000663931  0.9716784047335491   F   T   T
  0.2885674160009941  0.7500000176088264  0.0283216106342967   F   T   T
  0.1134392529681918  0.7500000176088264  0.4727162350287335   F   T   T
  0.2493121436678223  0.2500000000663931  0.5272836827709363   F   T   T
 
  0.00000000E+00  0.00000000E+00  0.00000000E+00
  0.00000000E+00  0.00000000E+00  0.00000000E+00
  0.00000000E+00  0.00000000E+00  0.00000000E+00
  0.00000000E+00  0.00000000E+00  0.00000000E+00
  0.00000000E+00  0.00000000E+00  0.00000000E+00
  0.00000000E+00  0.00000000E+00  0.00000000E+00
  0.00000000E+00  0.00000000E+00  0.00000000E+00
  0.00000000E+00  0.00000000E+00  0.00000000E+00
  0.00000000E+00  0.00000000E+00  0.00000000E+00
  0.00000000E+00  0.00000000E+00  0.00000000E+00
  0.00000000E+00  0.00000000E+00  0.00000000E+00
  0.00000000E+00  0.00000000E+00  0.00000000E+00
  0.00000000E+00  0.00000000E+00  0.00000000E+00
  0.00000000E+00  0.00000000E+00  0.00000000E+00
  0.00000000E+00  0.00000000E+00  0.00000000E+00
  0.00000000E+00  0.00000000E+00  0.00000000E+00
  0.00000000E+00  0.00000000E+00  0.00000000E+00
  0.00000000E+00  0.00000000E+00  0.00000000E+00
  0.00000000E+00  0.00000000E+00  0.00000000E+00
  0.00000000E+00  0.00000000E+00  0.00000000E+00
  0.00000000E+00  0.00000000E+00  0.00000000E+00
  0.00000000E+00  0.00000000E+00  0.00000000E+00
  0.00000000E+00  0.00000000E+00  0.00000000E+00
  0.00000000E+00  0.00000000E+00  0.00000000E+00
