ba8 si16                                
   1.00000000000000     
    24.0094680786000012    0.0000000000000000    0.0000000000000000
     0.0000000000000000    6.7778496741999996    0.0000000000000000
     0.0000000000000000    0.0000000000000000   11.6021432877000006
   Ba   Si
     8    16
Selective dynamics
Direct
  0.0056936146836932  0.2500000000663931  0.6851069548906870   F   T   T
  0.3362326654456496  0.7500000176088264  0.3148930451351694   F   T   T
  0.1819296202106742  0.7500000176088264  0.1859826769269101   F   T   T
  0.1599966586691650  0.2500000000663931  0.8140173024993033   F   T   T
  0.0597801408303269  0.7500000176088264  0.9425435399704822   F   T   T
  0.2821461380911643  0.2500000000663931  0.0574564394557313   F   T   T
  0.1278430928145298  0.2500000000663931  0.4203432114216877   F   T   T
  0.2140831860653094  0.7500000176088264  0.5796568297172594   F   T   T
  0.0728991332615152  0.0729673749605728  0.1764929574053614   F   T   T
  0.2690271456599760  0.9270326161575508  0.8235070221070481   F   T   T
  0.1147241003833415  0.9269603963038870  0.6478142089608757   F   T   T
  0.2272021784964977  0.0730395948142363  0.3521857910649813   F   T   T
  0.2690271456599760  0.5729673837981824  0.8235070221070481   F   T   T
  0.0728991332615152  0.4270326161723086  0.1764929574053614   F   T   T
  0.2272021784964977  0.4269603963186449  0.3521857910649813   F   T   T
  0.1147241003833415  0.5730396036518461  0.6478142089608757   F   T   T
  0.0311098080788312  0.7500000176088264  0.5833220860514766   F   T   T
  0.3108164633872690  0.2500000000663931  0.4166779138881913   F   T   T
  0.1565134280650469  0.2500000000663931  0.1137038697510937   F   T   T
  0.1854128607691976  0.7500000176088264  0.8862961096751205   F   T   T
  0.0741839757202953  0.2500000000663931  0.9975187381131697   F   T   T
  0.2677422982448192  0.7500000176088264  0.0024812772546761   F   T   T
  0.1134392529681918  0.7500000176088264  0.4605871321053457   F   T   T
  0.2284870259116474  0.2500000000663931  0.5394127856943244   F   T   T
 
  0.00000000E+00  0.00000000E+00  0.00000000E+00
  0.00000000E+00  0.00000000E+00  0.00000000E+00
  0.00000000E+00  0.00000000E+00  0.00000000E+00
  0.00000000E+00  0.00000000E+00  0.00000000E+00
  0.00000000E+00  0.00000000E+00  0.00000000E+00
  0.00000000E+00  0.00000000E+00  0.00000000E+00
  0.00000000E+00  0.00000000E+00  0.00000000E+00
  0.00000000E+00  0.00000000E+00  0.00000000E+00
  0.00000000E+00  0.00000000E+00  0.00000000E+00
  0.00000000E+00  0.00000000E+00  0.00000000E+00
  0.00000000E+00  0.00000000E+00  0.00000000E+00
  0.00000000E+00  0.00000000E+00  0.00000000E+00
  0.00000000E+00  0.00000000E+00  0.00000000E+00
  0.00000000E+00  0.00000000E+00  0.00000000E+00
  0.00000000E+00  0.00000000E+00  0.00000000E+00
  0.00000000E+00  0.00000000E+00  0.00000000E+00
  0.00000000E+00  0.00000000E+00  0.00000000E+00
  0.00000000E+00  0.00000000E+00  0.00000000E+00
  0.00000000E+00  0.00000000E+00  0.00000000E+00
  0.00000000E+00  0.00000000E+00  0.00000000E+00
  0.00000000E+00  0.00000000E+00  0.00000000E+00
  0.00000000E+00  0.00000000E+00  0.00000000E+00
  0.00000000E+00  0.00000000E+00  0.00000000E+00
  0.00000000E+00  0.00000000E+00  0.00000000E+00
