ba8 si16                                
   1.00000000000000     
    24.0094680786000012    0.0000000000000000    0.0000000000000000
     0.0000000000000000    6.7778496741999996    0.0000000000000000
     0.0000000000000000    0.0000000000000000   11.6021432877000006
   Ba   Si
     8    16
Selective dynamics
Direct
  0.0056936146836932  0.2500000000663931  0.7064601520742402   F   T   T
  0.3653878303043001  0.7500000176088264  0.2935398479516165   F   T   T
  0.1819296202106742  0.7500000176088264  0.1875093304940479   F   T   T
  0.1891518235278156  0.2500000000663931  0.8124906489321656   F   T   T
  0.0597801408303269  0.7500000176088264  0.9208400633861290   F   T   T
  0.3113013029498077  0.2500000000663931  0.0791599160400849   F   T   T
  0.1278430928145298  0.2500000000663931  0.3997774711856565   F   T   T
  0.2432383509239529  0.7500000176088264  0.6002225699532894   F   T   T
  0.0728991332615152  0.0728267933191483  0.1477883336430517   F   T   T
  0.2981823105186194  0.9271731977989752  0.8522116458693580   F   T   T
  0.1147241003833415  0.9273051349609192  0.6579664964638631   F   T   T
  0.2563573433551412  0.0726948561572041  0.3420335035619938   F   T   T
  0.2981823105186194  0.5728268021567580  0.8522116458693580   F   T   T
  0.0728991332615152  0.4271731978137331  0.1477883336430517   F   T   T
  0.2563573433551412  0.4273051349756773  0.3420335035619938   F   T   T
  0.1147241003833415  0.5726948649948140  0.6579664964638631   F   T   T
  0.0311098080788312  0.7500000176088264  0.5990182262542593   F   T   T
  0.3399716282459195  0.2500000000663931  0.4009817736854088   F   T   T
  0.1565134280650469  0.2500000000663931  0.0878115544311696   F   T   T
  0.2145680256278482  0.7500000176088264  0.9121884249950440   F   T   T
  0.0741839757202953  0.2500000000663931  0.9665341726146691   F   T   T
  0.2968974631034698  0.7500000176088264  0.0334658427531765   F   T   T
  0.1134392529681918  0.7500000176088264  0.4762384514580776   F   T   T
  0.2576421907702979  0.2500000000663931  0.5237614663415922   F   T   T
 
  0.00000000E+00  0.00000000E+00  0.00000000E+00
  0.00000000E+00  0.00000000E+00  0.00000000E+00
  0.00000000E+00  0.00000000E+00  0.00000000E+00
  0.00000000E+00  0.00000000E+00  0.00000000E+00
  0.00000000E+00  0.00000000E+00  0.00000000E+00
  0.00000000E+00  0.00000000E+00  0.00000000E+00
  0.00000000E+00  0.00000000E+00  0.00000000E+00
  0.00000000E+00  0.00000000E+00  0.00000000E+00
  0.00000000E+00  0.00000000E+00  0.00000000E+00
  0.00000000E+00  0.00000000E+00  0.00000000E+00
  0.00000000E+00  0.00000000E+00  0.00000000E+00
  0.00000000E+00  0.00000000E+00  0.00000000E+00
  0.00000000E+00  0.00000000E+00  0.00000000E+00
  0.00000000E+00  0.00000000E+00  0.00000000E+00
  0.00000000E+00  0.00000000E+00  0.00000000E+00
  0.00000000E+00  0.00000000E+00  0.00000000E+00
  0.00000000E+00  0.00000000E+00  0.00000000E+00
  0.00000000E+00  0.00000000E+00  0.00000000E+00
  0.00000000E+00  0.00000000E+00  0.00000000E+00
  0.00000000E+00  0.00000000E+00  0.00000000E+00
  0.00000000E+00  0.00000000E+00  0.00000000E+00
  0.00000000E+00  0.00000000E+00  0.00000000E+00
  0.00000000E+00  0.00000000E+00  0.00000000E+00
  0.00000000E+00  0.00000000E+00  0.00000000E+00
