ba8 si16                                
   1.00000000000000     
    24.0094680786000012    0.0000000000000000    0.0000000000000000
     0.0000000000000000    6.7778496741999996    0.0000000000000000
     0.0000000000000000    0.0000000000000000   11.6021432877000006
   Ba   Si
     8    16
Selective dynamics
Direct
  0.0056936146836932  0.2500000000663931  0.7045579668236875   F   T   T
  0.3528927596505937  0.7500000176088264  0.2954420332021695   F   T   T
  0.1819296202106742  0.7500000176088264  0.1879690383625437   F   T   T
  0.1766567528741092  0.2500000000663931  0.8120309410636702   F   T   T
  0.0597801408303269  0.7500000176088264  0.9246809071568881   F   T   T
  0.2988062322961014  0.2500000000663931  0.0753190722693258   F   T   T
  0.1278430928145298  0.2500000000663931  0.4050323504752670   F   T   T
  0.2307432802702465  0.7500000176088264  0.5949676906636795   F   T   T
  0.0728991332615152  0.0726253696549234  0.1550967569625572   F   T   T
  0.2856872398649131  0.9273746214631995  0.8449032225498524   F   T   T
  0.1147241003833415  0.9266040395242570  0.6533228746723783   F   T   T
  0.2438622727014348  0.0733959515938666  0.3466771253534786   F   T   T
  0.2856872398649131  0.5726253784925337  0.8449032225498524   F   T   T
  0.0728991332615152  0.4273746214779581  0.1550967569625572   F   T   T
  0.2438622727014348  0.4266040395390147  0.3466771253534786   F   T   T
  0.1147241003833415  0.5733959604314762  0.6533228746723783   F   T   T
  0.0311098080788312  0.7500000176088264  0.5938700795821951   F   T   T
  0.3274765575922132  0.2500000000663931  0.4061299203574724   F   T   T
  0.1565134280650469  0.2500000000663931  0.0950719898425711   F   T   T
  0.2020729549741418  0.7500000176088264  0.9049279895836427   F   T   T
  0.0741839757202953  0.2500000000663931  0.9751201303074758   F   T   T
  0.2844023924497634  0.7500000176088264  0.0248798850603698   F   T   T
  0.1134392529681918  0.7500000176088264  0.4713909271810151   F   T   T
  0.2451471201165916  0.2500000000663931  0.5286089906186552   F   T   T
 
  0.00000000E+00  0.00000000E+00  0.00000000E+00
  0.00000000E+00  0.00000000E+00  0.00000000E+00
  0.00000000E+00  0.00000000E+00  0.00000000E+00
  0.00000000E+00  0.00000000E+00  0.00000000E+00
  0.00000000E+00  0.00000000E+00  0.00000000E+00
  0.00000000E+00  0.00000000E+00  0.00000000E+00
  0.00000000E+00  0.00000000E+00  0.00000000E+00
  0.00000000E+00  0.00000000E+00  0.00000000E+00
  0.00000000E+00  0.00000000E+00  0.00000000E+00
  0.00000000E+00  0.00000000E+00  0.00000000E+00
  0.00000000E+00  0.00000000E+00  0.00000000E+00
  0.00000000E+00  0.00000000E+00  0.00000000E+00
  0.00000000E+00  0.00000000E+00  0.00000000E+00
  0.00000000E+00  0.00000000E+00  0.00000000E+00
  0.00000000E+00  0.00000000E+00  0.00000000E+00
  0.00000000E+00  0.00000000E+00  0.00000000E+00
  0.00000000E+00  0.00000000E+00  0.00000000E+00
  0.00000000E+00  0.00000000E+00  0.00000000E+00
  0.00000000E+00  0.00000000E+00  0.00000000E+00
  0.00000000E+00  0.00000000E+00  0.00000000E+00
  0.00000000E+00  0.00000000E+00  0.00000000E+00
  0.00000000E+00  0.00000000E+00  0.00000000E+00
  0.00000000E+00  0.00000000E+00  0.00000000E+00
  0.00000000E+00  0.00000000E+00  0.00000000E+00
