ba8 si16                                
   1.00000000000000     
    24.0094680786000012    0.0000000000000000    0.0000000000000000
     0.0000000000000000    6.7778496741999996    0.0000000000000000
     0.0000000000000000    0.0000000000000000   11.6021432877000006
   Ba   Si
     8    16
Selective dynamics
Direct
  0.0056936146836932  0.2500000000663931  0.7066471199216103   F   T   T
  0.3612228067530623  0.7500000176088264  0.2933528801042464   F   T   T
  0.1819296202106742  0.7500000176088264  0.1875748841490433   F   T   T
  0.1849867999765777  0.2500000000663931  0.8124250952771706   F   T   T
  0.0597801408303269  0.7500000176088264  0.9218407220838623   F   T   T
  0.3071362793985699  0.2500000000663931  0.0781592573423517   F   T   T
  0.1278430928145298  0.2500000000663931  0.4012350942729361   F   T   T
  0.2390733273727221  0.7500000176088264  0.5987649468660107   F   T   T
  0.0728991332615152  0.0727415345869133  0.1498360760869269   F   T   T
  0.2940172869673816  0.9272584565312101  0.8501639034254832   F   T   T
  0.1147241003833415  0.9270406850839649  0.6565606975017623   F   T   T
  0.2521923198039104  0.0729593060341588  0.3434393025240948   F   T   T
  0.2940172869673816  0.5727415434245231  0.8501639034254832   F   T   T
  0.0728991332615152  0.4272584565459680  0.1498360760869269   F   T   T
  0.2521923198039104  0.4270406850987226  0.3434393025240948   F   T   T
  0.1147241003833415  0.5729593148717683  0.6565606975017623   F   T   T
  0.0311098080788312  0.7500000176088264  0.5976525493584425   F   T   T
  0.3358066046946817  0.2500000000663931  0.4023474505812251   F   T   T
  0.1565134280650469  0.2500000000663931  0.0902395776225061   F   T   T
  0.2104030020766103  0.7500000176088264  0.9097604018037073   F   T   T
  0.0741839757202953  0.2500000000663931  0.9690454906230332   F   T   T
  0.2927324395522319  0.7500000176088264  0.0309545247448125   F   T   T
  0.1134392529681918  0.7500000176088264  0.4749300997869359   F   T   T
  0.2534771672190601  0.2500000000663931  0.5250698180127336   F   T   T
 
  0.00000000E+00  0.00000000E+00  0.00000000E+00
  0.00000000E+00  0.00000000E+00  0.00000000E+00
  0.00000000E+00  0.00000000E+00  0.00000000E+00
  0.00000000E+00  0.00000000E+00  0.00000000E+00
  0.00000000E+00  0.00000000E+00  0.00000000E+00
  0.00000000E+00  0.00000000E+00  0.00000000E+00
  0.00000000E+00  0.00000000E+00  0.00000000E+00
  0.00000000E+00  0.00000000E+00  0.00000000E+00
  0.00000000E+00  0.00000000E+00  0.00000000E+00
  0.00000000E+00  0.00000000E+00  0.00000000E+00
  0.00000000E+00  0.00000000E+00  0.00000000E+00
  0.00000000E+00  0.00000000E+00  0.00000000E+00
  0.00000000E+00  0.00000000E+00  0.00000000E+00
  0.00000000E+00  0.00000000E+00  0.00000000E+00
  0.00000000E+00  0.00000000E+00  0.00000000E+00
  0.00000000E+00  0.00000000E+00  0.00000000E+00
  0.00000000E+00  0.00000000E+00  0.00000000E+00
  0.00000000E+00  0.00000000E+00  0.00000000E+00
  0.00000000E+00  0.00000000E+00  0.00000000E+00
  0.00000000E+00  0.00000000E+00  0.00000000E+00
  0.00000000E+00  0.00000000E+00  0.00000000E+00
  0.00000000E+00  0.00000000E+00  0.00000000E+00
  0.00000000E+00  0.00000000E+00  0.00000000E+00
  0.00000000E+00  0.00000000E+00  0.00000000E+00
