ba8 si16                                
   1.00000000000000     
    24.0094680786000012    0.0000000000000000    0.0000000000000000
     0.0000000000000000    6.7778496741999996    0.0000000000000000
     0.0000000000000000    0.0000000000000000   11.6021432877000006
   Ba   Si
     8    16
Selective dynamics
Direct
  0.0056936146836932  0.2500000000663931  0.6983436691954156   F   T   T
  0.3445627125481252  0.7500000176088264  0.3016563308304411   F   T   T
  0.1819296202106742  0.7500000176088264  0.1882068636332185   F   T   T
  0.1683267057716336  0.2500000000663931  0.8117931157929954   F   T   T
  0.0597801408303269  0.7500000176088264  0.9296764716804284   F   T   T
  0.2904761851936328  0.2500000000663931  0.0703235077457853   F   T   T
  0.1278430928145298  0.2500000000663931  0.4103924736682263   F   T   T
  0.2224132331677779  0.7500000176088264  0.5896075674707197   F   T   T
  0.0728991332615152  0.0727000013522948  0.1629736850672282   F   T   T
  0.2773571927624445  0.9272999897658288  0.8370262944451814   F   T   T
  0.1147241003833415  0.9265261137004102  0.6492968871164844   F   T   T
  0.2355322255989662  0.0734738774177131  0.3507031129093722   F   T   T
  0.2773571927624445  0.5727000101899044  0.8370262944451814   F   T   T
  0.0728991332615152  0.4272999897805866  0.1629736850672282   F   T   T
  0.2355322255989662  0.4265261137151682  0.3507031129093722   F   T   T
  0.1147241003833415  0.5734738862553230  0.6492968871164844   F   T   T
  0.0311098080788312  0.7500000176088264  0.5884264670567750   F   T   T
  0.3191465104897375  0.2500000000663931  0.4115735328828926   F   T   T
  0.1565134280650469  0.2500000000663931  0.1011666434521262   F   T   T
  0.1937429078716733  0.7500000176088264  0.8988333359740873   F   T   T
  0.0741839757202953  0.2500000000663931  0.9837304725654727   F   T   T
  0.2760723453472878  0.7500000176088264  0.0162695428023729   F   T   T
  0.1134392529681918  0.7500000176088264  0.4661106047296546   F   T   T
  0.2368170730141230  0.2500000000663931  0.5338893130700152   F   T   T
 
  0.00000000E+00  0.00000000E+00  0.00000000E+00
  0.00000000E+00  0.00000000E+00  0.00000000E+00
  0.00000000E+00  0.00000000E+00  0.00000000E+00
  0.00000000E+00  0.00000000E+00  0.00000000E+00
  0.00000000E+00  0.00000000E+00  0.00000000E+00
  0.00000000E+00  0.00000000E+00  0.00000000E+00
  0.00000000E+00  0.00000000E+00  0.00000000E+00
  0.00000000E+00  0.00000000E+00  0.00000000E+00
  0.00000000E+00  0.00000000E+00  0.00000000E+00
  0.00000000E+00  0.00000000E+00  0.00000000E+00
  0.00000000E+00  0.00000000E+00  0.00000000E+00
  0.00000000E+00  0.00000000E+00  0.00000000E+00
  0.00000000E+00  0.00000000E+00  0.00000000E+00
  0.00000000E+00  0.00000000E+00  0.00000000E+00
  0.00000000E+00  0.00000000E+00  0.00000000E+00
  0.00000000E+00  0.00000000E+00  0.00000000E+00
  0.00000000E+00  0.00000000E+00  0.00000000E+00
  0.00000000E+00  0.00000000E+00  0.00000000E+00
  0.00000000E+00  0.00000000E+00  0.00000000E+00
  0.00000000E+00  0.00000000E+00  0.00000000E+00
  0.00000000E+00  0.00000000E+00  0.00000000E+00
  0.00000000E+00  0.00000000E+00  0.00000000E+00
  0.00000000E+00  0.00000000E+00  0.00000000E+00
  0.00000000E+00  0.00000000E+00  0.00000000E+00
