ba8 si16                                
   1.00000000000000     
     8.9477589177903418   -0.0000000000000000    0.0000000000000000
    -0.0000000000000000    6.7094034726797656    0.0000000000000000
     0.0000000000000000    0.0000000000000000   11.4922243084316662
   Ba   Si
     8    16
Direct
  0.0152186418097499  0.2500000000663931  0.6920668056652652
  0.9847813614534816  0.7500000176088264  0.3079331943605915
  0.4847813614867775  0.7500000176088264  0.1920667439396007
  0.5152186384466232  0.2500000000663931  0.8079332354866131
  0.1589682153179048  0.7500000176088264  0.9060885689350079
  0.8410317847264972  0.2500000000663931  0.0939114104912060
  0.3410317846487993  0.2500000000663931  0.4060886511482627
  0.6589682152846015  0.7500000176088264  0.5939113899906837
  0.1933321944129880  0.0712924997839421  0.1461357298071305
  0.8066678056314068  0.9287074913341813  0.8538642497052794
  0.3066678055537091  0.9287074913341813  0.6461357503335091
  0.6933321943796918  0.0712924997839421  0.3538642496923474
  0.8066678056314068  0.5712925086215519  0.8538642497052794
  0.1933321944129880  0.4287074913489393  0.1461357298071305
  0.6933321943796918  0.4287074913489393  0.3538642496923474
  0.3066678055537091  0.5712925086215519  0.6461357503335091
  0.0835564190997441  0.7500000176088264  0.5910078955552560
  0.9164435610766676  0.2500000000663931  0.4089921043844119
  0.4164435875266211  0.2500000000663931  0.0910078339157802
  0.5835564389344311  0.7500000176088264  0.9089921455104335
  0.1971344525436135  0.2500000000663931  0.9653668885428858
  0.8028655342924597  0.7500000176088264  0.0346331268249600
  0.3028655342147618  0.7500000176088264  0.4653668063899630
  0.6971344657186390  0.2500000000663931  0.5346331114097068
 
  0.00000000E+00  0.00000000E+00  0.00000000E+00
  0.00000000E+00  0.00000000E+00  0.00000000E+00
  0.00000000E+00  0.00000000E+00  0.00000000E+00
  0.00000000E+00  0.00000000E+00  0.00000000E+00
  0.00000000E+00  0.00000000E+00  0.00000000E+00
  0.00000000E+00  0.00000000E+00  0.00000000E+00
  0.00000000E+00  0.00000000E+00  0.00000000E+00
  0.00000000E+00  0.00000000E+00  0.00000000E+00
  0.00000000E+00  0.00000000E+00  0.00000000E+00
  0.00000000E+00  0.00000000E+00  0.00000000E+00
  0.00000000E+00  0.00000000E+00  0.00000000E+00
  0.00000000E+00  0.00000000E+00  0.00000000E+00
  0.00000000E+00  0.00000000E+00  0.00000000E+00
  0.00000000E+00  0.00000000E+00  0.00000000E+00
  0.00000000E+00  0.00000000E+00  0.00000000E+00
  0.00000000E+00  0.00000000E+00  0.00000000E+00
  0.00000000E+00  0.00000000E+00  0.00000000E+00
  0.00000000E+00  0.00000000E+00  0.00000000E+00
  0.00000000E+00  0.00000000E+00  0.00000000E+00
  0.00000000E+00  0.00000000E+00  0.00000000E+00
  0.00000000E+00  0.00000000E+00  0.00000000E+00
  0.00000000E+00  0.00000000E+00  0.00000000E+00
  0.00000000E+00  0.00000000E+00  0.00000000E+00
  0.00000000E+00  0.00000000E+00  0.00000000E+00
