ba8 si16                                
   1.00000000000000     
    79.4960476538086880    0.0000000000000000    0.0687680464486069
     0.0000000000000000    6.7136140863828446    0.0000000000000000
     0.0102528593794188    0.0000000000000000   11.5024948425065272
   Ba   Si
    56   112
Direct
  0.0135490695633875  0.2500000000663931  0.7054467682932976
  0.1236222413783563  0.2500000000663931  0.6945618568373907
  0.2362565374982914  0.2500000000663931  0.6948174582202079
  0.3491813720775448  0.2500000000663931  0.6932942357146347
  0.4621982411641881  0.2500000000663931  0.6900017387254298
  0.5751306621601111  0.2500000000663931  0.6879741154335504
  0.6878621655739150  0.2500000000663931  0.6879986125774472
  0.1199934437603533  0.7500000176088264  0.3120013874484089
  0.2327249593945334  0.7500000176088264  0.3120258845923071
  0.3456573803904632  0.7500000176088264  0.3099982613004267
  0.4586742250491446  0.7500000176088264  0.3067057643112222
  0.5715990596283977  0.7500000176088264  0.3051825418056483
  0.6842333435279497  0.7500000176088264  0.3054381431884661
  0.7943065159193543  0.7500000176088264  0.2945532317325593
  0.0623725747214101  0.7500000176088264  0.1971703261309140
  0.1762999297602272  0.7500000176088264  0.1953340097238595
  0.2891333366434982  0.7500000176088264  0.1940632200679100
  0.4021818486231853  0.7500000176088264  0.1912086719629626
  0.5152303790701307  0.7500000176088264  0.1886294099627683
  0.6280661944489335  0.7500000176088264  0.1878187592759778
  0.7402502120333514  0.7500000176088264  0.1873004909168863
  0.0676053728601440  0.2500000000663931  0.8126994885093280
  0.1797893904573730  0.2500000000663931  0.8121812201502357
  0.2926252180437475  0.2500000000663931  0.8113705694634458
  0.4056737240627312  0.2500000000663931  0.8087913074632510
  0.5187222116144566  0.2500000000663931  0.8059367593583033
  0.6315556307181175  0.2500000000663931  0.8046659697023543
  0.7454829857569347  0.2500000000663931  0.8028296532952990
  0.0333678019955763  0.7500000176088264  0.9163053641391088
  0.1400812371956877  0.7500000176088264  0.9101053220939124
  0.2524476394459664  0.7500000176088264  0.9086452747508800
  0.3654167788695522  0.7500000176088264  0.9069191987696266
  0.4784851613302071  0.7500000176088264  0.9038742602746574
  0.5915256448478606  0.7500000176088264  0.9022186316230446
  0.7046464875446811  0.7500000176088264  0.9023585473228991
  0.1032091095820085  0.2500000000663931  0.0976414321033146
  0.2163299522660178  0.2500000000663931  0.0977813478031696
  0.3293704357964823  0.2500000000663931  0.0961257191515564
  0.4424388182571443  0.2500000000663931  0.0930807806565872
  0.5554079576679184  0.2500000000663931  0.0913547046753333
  0.6677743599310024  0.2500000000663931  0.0898946573323015
  0.7744877936067641  0.2500000000663931  0.0836946152871053
  0.0481201533032820  0.2500000000663931  0.3990635286833022
  0.1600751518707832  0.2500000000663931  0.4085794173615089
  0.2729139558893102  0.2500000000663931  0.4084429868843822
  0.3858675829490623  0.2500000000663931  0.4068083564492110
  0.4988340646278524  0.2500000000663931  0.4033849182320419
  0.6117210054367782  0.2500000000663931  0.4023878976478972
  0.7239063085219517  0.2500000000663931  0.4002951497295680
  0.0839492458462015  0.7500000176088264  0.5997048914093787
  0.1961346039102941  0.7500000176088264  0.5976121434910492
  0.3090214836172984  0.7500000176088264  0.5966151229069053
  0.4219879653088994  0.7500000176088264  0.5931916846897354
  0.5349416412373794  0.7500000176088264  0.5915570542545641
  0.6477804452559065  0.7500000176088264  0.5914206237774379
  0.7597354438105962  0.7500000176088264  0.6009365124556443
  0.0296150742257982  0.0718670351852062  0.1487931879161070
  0.1432499020623661  0.0705216120064603  0.1496771197728806
  0.2560846666618128  0.0703511116570689  0.1488721608408048
  0.3692014980894973  0.0703608846954075  0.1473836028318560
  0.4822700895958145  0.0703335890640365  0.1441280842986649
  0.5951772249283090  0.0702572787579330  0.1427165652606983
  0.7071308236421265  0.0701806844574455  0.1410743689997210
  0.1007247612641799  0.9298193066606779  0.8589256105126891
  0.2126783721983871  0.9297427123601907  0.8572834142517112
  0.3255855075308820  0.9296664020540868  0.8558718952137445
  0.4386540501684644  0.9296391064227162  0.8526163766805542
  0.5517708815961420  0.9296488794610545  0.8511278186716053
  0.6646056584031749  0.9294783791116631  0.8503228597395288
  0.7782404801423474  0.9281329559329174  0.8512067915963025
  0.0443070496637840  0.9282290210469025  0.6467007779970929
  0.1563939619357692  0.9296878493064887  0.6490700199554940
  0.2692528415814109  0.9295854922922407  0.6487377324737600
  0.3821969980798812  0.9295394850608305  0.6468768139533014
  0.4951585706428379  0.9297393514676285  0.6436112878933115
  0.6080239676462575  0.9296384293082974  0.6421313925878657
  0.7208276288263742  0.9302664905173778  0.6423466505135118
  0.0870279743976956  0.0697335006007456  0.3576533495123448
  0.1998316417008150  0.0703615618098257  0.3578686074379837
  0.3126970509118134  0.0702606396504946  0.3563887121325450
  0.4256585990468154  0.0704605060572930  0.3531231860725551
  0.5386027555324751  0.0704144988258818  0.3512622675520960
  0.6514616229705376  0.0703121418116345  0.3509299800703630
  0.7635485413399092  0.0717709700712214  0.3532992220287574
  0.1007247612641799  0.5701806932950553  0.8589256105126890
  0.2126783721983871  0.5702572875955425  0.8572834142517112
  0.3255855075308820  0.5703335979016464  0.8558718952137445
  0.4386540501684644  0.5703608935330169  0.8526163766805542
  0.5517708815961420  0.5703511204946787  0.8511278186716053
  0.6646056584031749  0.5705216208440701  0.8503228597395288
  0.7782404801423474  0.5718670440228157  0.8512067915963025
  0.0296150742257982  0.4281329559476747  0.1487931879161070
  0.1432499020623661  0.4294783791264213  0.1496771197728806
  0.2560846666618128  0.4296488794758127  0.1488721608408048
  0.3692014980894973  0.4296391064374740  0.1473836028318560
  0.4822700895958145  0.4296664020688452  0.1441280842986649
  0.5951772249283090  0.4297427123749482  0.1427165652606983
  0.7071308236421265  0.4298193066754361  0.1410743689997210
  0.0870279743976956  0.4302664905321359  0.3576533495123448
  0.1998316417008150  0.4296384293230562  0.3578686074379837
  0.3126970509118134  0.4297393514823868  0.3563887121325450
  0.4256585990468154  0.4295394850755885  0.3531231860725551
  0.5386027555324751  0.4295854923069992  0.3512622675520960
  0.6514616229705376  0.4296878493212473  0.3509299800703630
  0.7635485413399092  0.4282290210616598  0.3532992220287574
  0.0443070496637840  0.5717709789088307  0.6467007779970930
  0.1563939619357692  0.5703121506492445  0.6490700199554940
  0.2692528415814109  0.5704145076634924  0.6487377324737600
  0.3821969980798812  0.5704605148949027  0.6468768139533014
  0.4951585706428379  0.5702606484881046  0.6436112878933115
  0.6080239676462575  0.5703615706474358  0.6421313925878657
  0.7208276288263742  0.5697335094383554  0.6423466505135118
  0.0176619597119257  0.7500000176088264  0.6249852792889929
  0.1311486624587990  0.7500000176088264  0.5947352683932736
  0.2439915655376458  0.7500000176088264  0.5941239727431329
  0.3569176821357288  0.7500000176088264  0.5924186473193833
  0.4698916057105643  0.7500000176088264  0.5891884027606205
  0.5827735347415809  0.7500000176088264  0.5873436886818761
  0.6956630010594400  0.7500000176088264  0.5877802877195563
  0.1121925594060936  0.2500000000663931  0.4122197122201109
  0.2250820135163808  0.2500000000663931  0.4126563112577845
  0.3379639669753593  0.2500000000663931  0.4108115971790469
  0.4509378416942710  0.2500000000663931  0.4075813526202843
  0.5638640315762317  0.2500000000663931  0.4058760271965342
  0.6767069346678906  0.2500000000663931  0.4052647315463936
  0.7901936229142557  0.2500000000663931  0.3750147206506749
  0.0553765799332773  0.2500000000663931  0.0862421111651705
  0.1685664414167920  0.2500000000663931  0.0955347788067746
  0.2813651290559229  0.2500000000663931  0.0939951844586722
  0.3944713331691704  0.2500000000663931  0.0920015111341797
  0.5075336743265393  0.2500000000663931  0.0886731179018068
  0.6204183413219763  0.2500000000663931  0.0873998379090653
  0.7322045402757308  0.2500000000663931  0.0862363894012712
  0.0756510446305757  0.7500000176088264  0.9137635900249435
  0.1874372435843304  0.7500000176088264  0.9126001415171484
  0.3003218983593767  0.7500000176088264  0.9113268615244071
  0.4133842395167531  0.7500000176088264  0.9079984682920343
  0.5264904924987357  0.7500000176088264  0.9060047949675489
  0.6392891801378593  0.7500000176088264  0.9044652006194390
  0.7524790324496814  0.7500000176088264  0.9137578682610425
  0.0298501982168969  0.2500000000663931  0.9666274951190725
  0.1437824507574034  0.2500000000663931  0.9684102022625342
  0.2565161876304100  0.2500000000663931  0.9673876808383716
  0.3695837534335871  0.2500000000663931  0.9658473957482775
  0.4826403368235639  0.2500000000663931  0.9626935397760366
  0.5955580663468942  0.2500000000663931  0.9612514420995696
  0.7079731068685177  0.2500000000663931  0.9590307691853404
  0.0998824474996278  0.7500000176088264  0.0409692461825047
  0.2122974819110602  0.7500000176088264  0.0387485732682761
  0.3252152847310874  0.7500000176088264  0.0373064755918094
  0.4382717948243746  0.7500000176088264  0.0341526196195679
  0.5513394094834759  0.7500000176088264  0.0326123345294739
  0.6640731463692933  0.7500000176088264  0.0315898131053114
  0.7780053927996006  0.7500000176088264  0.0333725202487725
  0.0382672218254886  0.7500000176088264  0.4674409859157730
  0.1560246357480427  0.7500000176088264  0.4677722645598986
  0.2688532740615753  0.7500000176088264  0.4672460304127096
  0.3816991617175445  0.7500000176088264  0.4652837464070587
  0.4947334009553657  0.7500000176088264  0.4621123465471350
  0.6076791484922567  0.7500000176088264  0.4607104799762363
  0.7204803924556815  0.7500000176088264  0.4608144736044011
  0.0873751496920886  0.2500000000663931  0.5391854441952686
  0.2001764486344408  0.2500000000663931  0.5392894378234329
  0.3131221961585198  0.2500000000663931  0.5378875712525353
  0.4261564109811902  0.2500000000663931  0.5347161713926109
  0.5390023474930756  0.2500000000663931  0.5327538873869597
  0.6518309735990299  0.2500000000663931  0.5322276532397717
  0.7695883844600822  0.2500000000663931  0.5325589318838969
 
  0.00000000E+00  0.00000000E+00  0.00000000E+00
  0.00000000E+00  0.00000000E+00  0.00000000E+00
  0.00000000E+00  0.00000000E+00  0.00000000E+00
  0.00000000E+00  0.00000000E+00  0.00000000E+00
  0.00000000E+00  0.00000000E+00  0.00000000E+00
  0.00000000E+00  0.00000000E+00  0.00000000E+00
  0.00000000E+00  0.00000000E+00  0.00000000E+00
  0.00000000E+00  0.00000000E+00  0.00000000E+00
  0.00000000E+00  0.00000000E+00  0.00000000E+00
  0.00000000E+00  0.00000000E+00  0.00000000E+00
  0.00000000E+00  0.00000000E+00  0.00000000E+00
  0.00000000E+00  0.00000000E+00  0.00000000E+00
  0.00000000E+00  0.00000000E+00  0.00000000E+00
  0.00000000E+00  0.00000000E+00  0.00000000E+00
  0.00000000E+00  0.00000000E+00  0.00000000E+00
  0.00000000E+00  0.00000000E+00  0.00000000E+00
  0.00000000E+00  0.00000000E+00  0.00000000E+00
  0.00000000E+00  0.00000000E+00  0.00000000E+00
  0.00000000E+00  0.00000000E+00  0.00000000E+00
  0.00000000E+00  0.00000000E+00  0.00000000E+00
  0.00000000E+00  0.00000000E+00  0.00000000E+00
  0.00000000E+00  0.00000000E+00  0.00000000E+00
  0.00000000E+00  0.00000000E+00  0.00000000E+00
  0.00000000E+00  0.00000000E+00  0.00000000E+00
  0.00000000E+00  0.00000000E+00  0.00000000E+00
  0.00000000E+00  0.00000000E+00  0.00000000E+00
  0.00000000E+00  0.00000000E+00  0.00000000E+00
  0.00000000E+00  0.00000000E+00  0.00000000E+00
  0.00000000E+00  0.00000000E+00  0.00000000E+00
  0.00000000E+00  0.00000000E+00  0.00000000E+00
  0.00000000E+00  0.00000000E+00  0.00000000E+00
  0.00000000E+00  0.00000000E+00  0.00000000E+00
  0.00000000E+00  0.00000000E+00  0.00000000E+00
  0.00000000E+00  0.00000000E+00  0.00000000E+00
  0.00000000E+00  0.00000000E+00  0.00000000E+00
  0.00000000E+00  0.00000000E+00  0.00000000E+00
  0.00000000E+00  0.00000000E+00  0.00000000E+00
  0.00000000E+00  0.00000000E+00  0.00000000E+00
  0.00000000E+00  0.00000000E+00  0.00000000E+00
  0.00000000E+00  0.00000000E+00  0.00000000E+00
  0.00000000E+00  0.00000000E+00  0.00000000E+00
  0.00000000E+00  0.00000000E+00  0.00000000E+00
  0.00000000E+00  0.00000000E+00  0.00000000E+00
  0.00000000E+00  0.00000000E+00  0.00000000E+00
  0.00000000E+00  0.00000000E+00  0.00000000E+00
  0.00000000E+00  0.00000000E+00  0.00000000E+00
  0.00000000E+00  0.00000000E+00  0.00000000E+00
  0.00000000E+00  0.00000000E+00  0.00000000E+00
  0.00000000E+00  0.00000000E+00  0.00000000E+00
  0.00000000E+00  0.00000000E+00  0.00000000E+00
  0.00000000E+00  0.00000000E+00  0.00000000E+00
  0.00000000E+00  0.00000000E+00  0.00000000E+00
  0.00000000E+00  0.00000000E+00  0.00000000E+00
  0.00000000E+00  0.00000000E+00  0.00000000E+00
  0.00000000E+00  0.00000000E+00  0.00000000E+00
  0.00000000E+00  0.00000000E+00  0.00000000E+00
  0.00000000E+00  0.00000000E+00  0.00000000E+00
  0.00000000E+00  0.00000000E+00  0.00000000E+00
  0.00000000E+00  0.00000000E+00  0.00000000E+00
  0.00000000E+00  0.00000000E+00  0.00000000E+00
  0.00000000E+00  0.00000000E+00  0.00000000E+00
  0.00000000E+00  0.00000000E+00  0.00000000E+00
  0.00000000E+00  0.00000000E+00  0.00000000E+00
  0.00000000E+00  0.00000000E+00  0.00000000E+00
  0.00000000E+00  0.00000000E+00  0.00000000E+00
  0.00000000E+00  0.00000000E+00  0.00000000E+00
  0.00000000E+00  0.00000000E+00  0.00000000E+00
  0.00000000E+00  0.00000000E+00  0.00000000E+00
  0.00000000E+00  0.00000000E+00  0.00000000E+00
  0.00000000E+00  0.00000000E+00  0.00000000E+00
  0.00000000E+00  0.00000000E+00  0.00000000E+00
  0.00000000E+00  0.00000000E+00  0.00000000E+00
  0.00000000E+00  0.00000000E+00  0.00000000E+00
  0.00000000E+00  0.00000000E+00  0.00000000E+00
  0.00000000E+00  0.00000000E+00  0.00000000E+00
  0.00000000E+00  0.00000000E+00  0.00000000E+00
  0.00000000E+00  0.00000000E+00  0.00000000E+00
  0.00000000E+00  0.00000000E+00  0.00000000E+00
  0.00000000E+00  0.00000000E+00  0.00000000E+00
  0.00000000E+00  0.00000000E+00  0.00000000E+00
  0.00000000E+00  0.00000000E+00  0.00000000E+00
  0.00000000E+00  0.00000000E+00  0.00000000E+00
  0.00000000E+00  0.00000000E+00  0.00000000E+00
  0.00000000E+00  0.00000000E+00  0.00000000E+00
  0.00000000E+00  0.00000000E+00  0.00000000E+00
  0.00000000E+00  0.00000000E+00  0.00000000E+00
  0.00000000E+00  0.00000000E+00  0.00000000E+00
  0.00000000E+00  0.00000000E+00  0.00000000E+00
  0.00000000E+00  0.00000000E+00  0.00000000E+00
  0.00000000E+00  0.00000000E+00  0.00000000E+00
  0.00000000E+00  0.00000000E+00  0.00000000E+00
  0.00000000E+00  0.00000000E+00  0.00000000E+00
  0.00000000E+00  0.00000000E+00  0.00000000E+00
  0.00000000E+00  0.00000000E+00  0.00000000E+00
  0.00000000E+00  0.00000000E+00  0.00000000E+00
  0.00000000E+00  0.00000000E+00  0.00000000E+00
  0.00000000E+00  0.00000000E+00  0.00000000E+00
  0.00000000E+00  0.00000000E+00  0.00000000E+00
  0.00000000E+00  0.00000000E+00  0.00000000E+00
  0.00000000E+00  0.00000000E+00  0.00000000E+00
  0.00000000E+00  0.00000000E+00  0.00000000E+00
  0.00000000E+00  0.00000000E+00  0.00000000E+00
  0.00000000E+00  0.00000000E+00  0.00000000E+00
  0.00000000E+00  0.00000000E+00  0.00000000E+00
  0.00000000E+00  0.00000000E+00  0.00000000E+00
  0.00000000E+00  0.00000000E+00  0.00000000E+00
  0.00000000E+00  0.00000000E+00  0.00000000E+00
  0.00000000E+00  0.00000000E+00  0.00000000E+00
  0.00000000E+00  0.00000000E+00  0.00000000E+00
  0.00000000E+00  0.00000000E+00  0.00000000E+00
  0.00000000E+00  0.00000000E+00  0.00000000E+00
  0.00000000E+00  0.00000000E+00  0.00000000E+00
  0.00000000E+00  0.00000000E+00  0.00000000E+00
  0.00000000E+00  0.00000000E+00  0.00000000E+00
  0.00000000E+00  0.00000000E+00  0.00000000E+00
  0.00000000E+00  0.00000000E+00  0.00000000E+00
  0.00000000E+00  0.00000000E+00  0.00000000E+00
  0.00000000E+00  0.00000000E+00  0.00000000E+00
  0.00000000E+00  0.00000000E+00  0.00000000E+00
  0.00000000E+00  0.00000000E+00  0.00000000E+00
  0.00000000E+00  0.00000000E+00  0.00000000E+00
  0.00000000E+00  0.00000000E+00  0.00000000E+00
  0.00000000E+00  0.00000000E+00  0.00000000E+00
  0.00000000E+00  0.00000000E+00  0.00000000E+00
  0.00000000E+00  0.00000000E+00  0.00000000E+00
  0.00000000E+00  0.00000000E+00  0.00000000E+00
  0.00000000E+00  0.00000000E+00  0.00000000E+00
  0.00000000E+00  0.00000000E+00  0.00000000E+00
  0.00000000E+00  0.00000000E+00  0.00000000E+00
  0.00000000E+00  0.00000000E+00  0.00000000E+00
  0.00000000E+00  0.00000000E+00  0.00000000E+00
  0.00000000E+00  0.00000000E+00  0.00000000E+00
  0.00000000E+00  0.00000000E+00  0.00000000E+00
  0.00000000E+00  0.00000000E+00  0.00000000E+00
  0.00000000E+00  0.00000000E+00  0.00000000E+00
  0.00000000E+00  0.00000000E+00  0.00000000E+00
  0.00000000E+00  0.00000000E+00  0.00000000E+00
  0.00000000E+00  0.00000000E+00  0.00000000E+00
  0.00000000E+00  0.00000000E+00  0.00000000E+00
  0.00000000E+00  0.00000000E+00  0.00000000E+00
  0.00000000E+00  0.00000000E+00  0.00000000E+00
  0.00000000E+00  0.00000000E+00  0.00000000E+00
  0.00000000E+00  0.00000000E+00  0.00000000E+00
  0.00000000E+00  0.00000000E+00  0.00000000E+00
  0.00000000E+00  0.00000000E+00  0.00000000E+00
  0.00000000E+00  0.00000000E+00  0.00000000E+00
  0.00000000E+00  0.00000000E+00  0.00000000E+00
  0.00000000E+00  0.00000000E+00  0.00000000E+00
  0.00000000E+00  0.00000000E+00  0.00000000E+00
  0.00000000E+00  0.00000000E+00  0.00000000E+00
  0.00000000E+00  0.00000000E+00  0.00000000E+00
  0.00000000E+00  0.00000000E+00  0.00000000E+00
  0.00000000E+00  0.00000000E+00  0.00000000E+00
  0.00000000E+00  0.00000000E+00  0.00000000E+00
  0.00000000E+00  0.00000000E+00  0.00000000E+00
  0.00000000E+00  0.00000000E+00  0.00000000E+00
  0.00000000E+00  0.00000000E+00  0.00000000E+00
  0.00000000E+00  0.00000000E+00  0.00000000E+00
  0.00000000E+00  0.00000000E+00  0.00000000E+00
  0.00000000E+00  0.00000000E+00  0.00000000E+00
  0.00000000E+00  0.00000000E+00  0.00000000E+00
  0.00000000E+00  0.00000000E+00  0.00000000E+00
  0.00000000E+00  0.00000000E+00  0.00000000E+00
  0.00000000E+00  0.00000000E+00  0.00000000E+00
  0.00000000E+00  0.00000000E+00  0.00000000E+00
  0.00000000E+00  0.00000000E+00  0.00000000E+00
  0.00000000E+00  0.00000000E+00  0.00000000E+00
  0.00000000E+00  0.00000000E+00  0.00000000E+00
