ba8 si16                                
   1.00000000000000     
    77.3984020727301072    0.0000000000000000    0.0007332028433573
     0.0000000000000000    6.7000120411027142    0.0000000000000000
     0.0000487024148702    0.0000000000000000   11.4688829892918314
   Ba   Si
    56   112
Direct
  0.0042588499422707  0.2500000000663931  0.7006693797934406
  0.1173411735616673  0.2500000000663931  0.6902173772293770
  0.2326232798089679  0.2500000000663931  0.6914348580794314
  0.3480545569156325  0.2500000000663931  0.6915635216678121
  0.4635015812691285  0.2500000000663931  0.6915489265336626
  0.5789262933320333  0.2500000000663931  0.6913684627485494
  0.6943379210753343  0.2500000000663931  0.6918814257223369
  0.1135176882589344  0.7500000176088264  0.3081185743035197
  0.2289293282226179  0.7500000176088264  0.3086315372773072
  0.3443540402855228  0.7500000176088264  0.3084510734921937
  0.4598010402110569  0.7500000176088264  0.3084364783580444
  0.5752323173177215  0.7500000176088264  0.3085651419464254
  0.6905144113446389  0.7500000176088264  0.3097826227964797
  0.8035967355404707  0.7500000176088264  0.2993306202324160
  0.0545062556808348  0.7500000176088264  0.1926805982408568
  0.1712101031145250  0.7500000176088264  0.1909844004458301
  0.2866343680495707  0.7500000176088264  0.1914716623820755
  0.4020967316044718  0.7500000176088264  0.1915769072674221
  0.5175142020105126  0.7500000176088264  0.1915382283751053
  0.6329701171349518  0.7500000176088264  0.1915520069798705
  0.7480629513322969  0.7500000176088264  0.1918254914341392
  0.0597926335611988  0.2500000000663931  0.8081744879920745
  0.1748854677713544  0.2500000000663931  0.8084479724463436
  0.2903413951033657  0.2500000000663931  0.8084617510511086
  0.4057588410814446  0.2500000000663931  0.8084230721587916
  0.5212211802083841  0.2500000000663931  0.8085283170441383
  0.6366454573638197  0.2500000000663931  0.8090155789803838
  0.7533493047975097  0.2500000000663931  0.8073193811853567
  0.0246601273803720  0.7500000176088264  0.9118534149261688
  0.1342093968323423  0.7500000176088264  0.9058708665144092
  0.2493675129157792  0.7500000176088264  0.9060963552351933
  0.3647708289751900  0.7500000176088264  0.9060191953275599
  0.4801614775926657  0.7500000176088264  0.9060406854951721
  0.5956313862385768  0.7500000176088264  0.9062210297695984
  0.7115183579058905  0.7500000176088264  0.9071077544716050
  0.0963372392207990  0.2500000000663931  0.0928922249546088
  0.2122242108753014  0.2500000000663931  0.0937789496566153
  0.3276941195340237  0.2500000000663931  0.0939592939310419
  0.4430847681515065  0.2500000000663931  0.0939807840986538
  0.5584880841981061  0.2500000000663931  0.0939036241910208
  0.6736462002943475  0.2500000000663931  0.0941291129118044
  0.7831954682219686  0.2500000000663931  0.0881465645000448
  0.0398391976575729  0.2500000000663931  0.3951132791953144
  0.1545926503491276  0.2500000000663931  0.4048859863012165
  0.2699473425170154  0.2500000000663931  0.4060124734538559
  0.3853947976551570  0.2500000000663931  0.4059496851371290
  0.5008457154314186  0.2500000000663931  0.4060691763596415
  0.6161821659700488  0.2500000000663931  0.4063222643988459
  0.7313281530330282  0.2500000000663931  0.4049632824217895
  0.0765274013351249  0.7500000176088264  0.5950367587171568
  0.1916734433770236  0.7500000176088264  0.5936777767401001
  0.3070098328137322  0.7500000176088264  0.5939308647793052
  0.4224607506028047  0.7500000176088264  0.5940503560018170
  0.5379082546096740  0.7500000176088264  0.5939875676850904
  0.6532629467775616  0.7500000176088264  0.5951140548377297
  0.7680163994563054  0.7500000176088264  0.6048867619436320
  0.0208583216078309  0.0714489242736345  0.1450427896580523
  0.1373918522262303  0.0702960359874958  0.1457372897369817
  0.2529406879154201  0.0703276410640930  0.1463454920856462
  0.3684138825810988  0.0702919491782339  0.1463138895732938
  0.4838296038938847  0.0702946681187661  0.1462956005999858
  0.5992414041091184  0.0702959122805215  0.1465263380719791
  0.7140401567394602  0.0698562695189521  0.1459817635493576
  0.0938154281668462  0.9301437215991715  0.8540182159630517
  0.2086141930175781  0.9297040788376020  0.8534736414404304
  0.3240259932328118  0.9297053229993576  0.8537043789124240
  0.4394416656768629  0.9297080419398893  0.8536860899391164
  0.5549148603425345  0.9296723500540306  0.8536544874267636
  0.6704637082393102  0.9297039551306279  0.8542626897754277
  0.7869972327603151  0.9285510668444886  0.8549571898543568
  0.0358635986978039  0.9284748447987922  0.6415334264903974
  0.1509824160771413  0.9297733200381334  0.6452252903610219
  0.2662761215119307  0.9297005019881805  0.6463221187138610
  0.3817168240498928  0.9297262216347071  0.6462232712798575
  0.4971553074514237  0.9296804140485814  0.6463895359424775
  0.6126094611981504  0.9297819315565182  0.6463426754039452
  0.7281254674783153  0.9304678288953416  0.6471982157230158
  0.0797301357457546  0.0695321622227821  0.3528017843028411
  0.1952461481489221  0.0702180595616049  0.3536573246219115
  0.3107003141032276  0.0703195770695419  0.3536104640833790
  0.4261387730768038  0.0702737694834163  0.3537767287459990
  0.5415794756019551  0.0702994891299429  0.3536778813119960
  0.6568731688291650  0.0702266710799899  0.3547747096648343
  0.7719919923058906  0.0715251463193314  0.3584665735354591
  0.0938154281668462  0.5698562783565617  0.8540182159630517
  0.2086141930175781  0.5702959211181312  0.8534736414404304
  0.3240259932328118  0.5702946769563756  0.8537043789124240
  0.4394416656768629  0.5702919580158439  0.8536860899391164
  0.5549148603425345  0.5703276499017026  0.8536544874267636
  0.6704637082393102  0.5702960448251053  0.8542626897754277
  0.7869972327603151  0.5714489331112446  0.8549571898543568
  0.0208583216078309  0.4285510668592469  0.1450427896580523
  0.1373918522262303  0.4297039551453857  0.1457372897369817
  0.2529406879154201  0.4296723500687884  0.1463454920856462
  0.3684138825810988  0.4297080419546475  0.1463138895732938
  0.4838296038938847  0.4297053230141153  0.1462956005999858
  0.5992414041091184  0.4297040788523598  0.1465263380719791
  0.7140401567394602  0.4301437216139291  0.1459817635493576
  0.0797301357457546  0.4304678289100994  0.3528017843028411
  0.1952461481489221  0.4297819315712766  0.3536573246219115
  0.3107003141032276  0.4296804140633395  0.3536104640833790
  0.4261387730768038  0.4297262216494652  0.3537767287459990
  0.5415794756019551  0.4297005020029385  0.3536778813119960
  0.6568731688291650  0.4297733200528914  0.3547747096648343
  0.7719919923058906  0.4284748448135501  0.3584665735354591
  0.0358635986978039  0.5715251551569410  0.6415334264903974
  0.1509824160771413  0.5702266799175998  0.6452252903610219
  0.2662761215119307  0.5702994979675526  0.6463221187138610
  0.3817168240498928  0.5702737783210261  0.6462232712798575
  0.4971553074514237  0.5703195859071518  0.6463895359424775
  0.6126094611981504  0.5702180683992150  0.6463426754039452
  0.7281254674783153  0.5695321710603916  0.6471982157230158
  0.0085425702542878  0.7500000176088264  0.6179091885427105
  0.1250412648430627  0.7500000176088264  0.5907904018557120
  0.2403293064215748  0.7500000176088264  0.5916828435859118
  0.3557486494704484  0.7500000176088264  0.5917958193268800
  0.4711896983722652  0.7500000176088264  0.5919216130850534
  0.5866675757655599  0.7500000176088264  0.5919249874871302
  0.7022976932326173  0.7500000176088264  0.5921524723067704
  0.1055578672329161  0.2500000000663931  0.4078475276328977
  0.2211879724924014  0.2500000000663931  0.4080750124525380
  0.3366658743136584  0.2500000000663931  0.4080783868546146
  0.4521068743595514  0.2500000000663931  0.4082041806127881
  0.5675262906923035  0.2500000000663931  0.4083171563537556
  0.6828143322836265  0.2500000000663931  0.4092095980839558
  0.7993130123719018  0.2500000000663931  0.3820908113969576
  0.0473099422790449  0.2500000000663931  0.0823331356541673
  0.1633710293771496  0.2500000000663931  0.0915320532389542
  0.2789063103763330  0.2500000000663931  0.0919546378044908
  0.3943915060377758  0.2500000000663931  0.0919666052479727
  0.5097854605046414  0.2500000000663931  0.0916623668528265
  0.6251522744622379  0.2500000000663931  0.0915448029568683
  0.7397682970826622  0.2500000000663931  0.0911109544870762
  0.0680872878236439  0.7500000176088264  0.9088890249391377
  0.1827033104440685  0.7500000176088264  0.9084551764693455
  0.2980701121812749  0.7500000176088264  0.9083376125733871
  0.4134640666481478  0.7500000176088264  0.9080333741782411
  0.5289493111783254  0.7500000176088264  0.9080453416217227
  0.6444845921775013  0.7500000176088264  0.9084679261872596
  0.7605456701039136  0.7500000176088264  0.9176668437720460
  0.0210736372410955  0.2500000000663931  0.9623660087066288
  0.1378871042144507  0.2500000000663931  0.9640561819580581
  0.2534347348146175  0.2500000000663931  0.9644936642426073
  0.3689187168695628  0.2500000000663931  0.9645286315982197
  0.4842915439928260  0.2500000000663931  0.9643630073149013
  0.5996319682153842  0.2500000000663931  0.9646237170522692
  0.7148654724270260  0.2500000000663931  0.9633772011208009
  0.0929900819411194  0.7500000176088264  0.0366228142470448
  0.2082235800425706  0.7500000176088264  0.0353762983155766
  0.3235640775618253  0.7500000176088264  0.0356370080529441
  0.4389368313883988  0.7500000176088264  0.0354713837696259
  0.5544208622992682  0.7500000176088264  0.0355063511252383
  0.6699684929122458  0.7500000176088264  0.0359438334097874
  0.7867819537754027  0.7500000176088264  0.0376340066612166
  0.0298983674814483  0.7500000176088264  0.4614438162915413
  0.1505172731537081  0.7500000176088264  0.4633862497768890
  0.2658297415778827  0.7500000176088264  0.4644166798498785
  0.3812263772852243  0.7500000176088264  0.4644155494948018
  0.4966787859398401  0.7500000176088264  0.4645484223722523
  0.6121506536946432  0.7500000176088264  0.4645263463005307
  0.7277405859174739  0.7500000176088264  0.4650773149711629
  0.0801149562302964  0.2500000000663931  0.5349226028285071
  0.1957049434320534  0.2500000000663931  0.5354735714991392
  0.3111768111740453  0.2500000000663931  0.5354514954274178
  0.4266291954135104  0.2500000000663931  0.5355843683048678
  0.5420258799767685  0.2500000000663931  0.5355832379497915
  0.6573383361933645  0.2500000000663931  0.5366136680227808
  0.7779572388041224  0.2500000000663931  0.5385561015081287
 
  0.00000000E+00  0.00000000E+00  0.00000000E+00
  0.00000000E+00  0.00000000E+00  0.00000000E+00
  0.00000000E+00  0.00000000E+00  0.00000000E+00
  0.00000000E+00  0.00000000E+00  0.00000000E+00
  0.00000000E+00  0.00000000E+00  0.00000000E+00
  0.00000000E+00  0.00000000E+00  0.00000000E+00
  0.00000000E+00  0.00000000E+00  0.00000000E+00
  0.00000000E+00  0.00000000E+00  0.00000000E+00
  0.00000000E+00  0.00000000E+00  0.00000000E+00
  0.00000000E+00  0.00000000E+00  0.00000000E+00
  0.00000000E+00  0.00000000E+00  0.00000000E+00
  0.00000000E+00  0.00000000E+00  0.00000000E+00
  0.00000000E+00  0.00000000E+00  0.00000000E+00
  0.00000000E+00  0.00000000E+00  0.00000000E+00
  0.00000000E+00  0.00000000E+00  0.00000000E+00
  0.00000000E+00  0.00000000E+00  0.00000000E+00
  0.00000000E+00  0.00000000E+00  0.00000000E+00
  0.00000000E+00  0.00000000E+00  0.00000000E+00
  0.00000000E+00  0.00000000E+00  0.00000000E+00
  0.00000000E+00  0.00000000E+00  0.00000000E+00
  0.00000000E+00  0.00000000E+00  0.00000000E+00
  0.00000000E+00  0.00000000E+00  0.00000000E+00
  0.00000000E+00  0.00000000E+00  0.00000000E+00
  0.00000000E+00  0.00000000E+00  0.00000000E+00
  0.00000000E+00  0.00000000E+00  0.00000000E+00
  0.00000000E+00  0.00000000E+00  0.00000000E+00
  0.00000000E+00  0.00000000E+00  0.00000000E+00
  0.00000000E+00  0.00000000E+00  0.00000000E+00
  0.00000000E+00  0.00000000E+00  0.00000000E+00
  0.00000000E+00  0.00000000E+00  0.00000000E+00
  0.00000000E+00  0.00000000E+00  0.00000000E+00
  0.00000000E+00  0.00000000E+00  0.00000000E+00
  0.00000000E+00  0.00000000E+00  0.00000000E+00
  0.00000000E+00  0.00000000E+00  0.00000000E+00
  0.00000000E+00  0.00000000E+00  0.00000000E+00
  0.00000000E+00  0.00000000E+00  0.00000000E+00
  0.00000000E+00  0.00000000E+00  0.00000000E+00
  0.00000000E+00  0.00000000E+00  0.00000000E+00
  0.00000000E+00  0.00000000E+00  0.00000000E+00
  0.00000000E+00  0.00000000E+00  0.00000000E+00
  0.00000000E+00  0.00000000E+00  0.00000000E+00
  0.00000000E+00  0.00000000E+00  0.00000000E+00
  0.00000000E+00  0.00000000E+00  0.00000000E+00
  0.00000000E+00  0.00000000E+00  0.00000000E+00
  0.00000000E+00  0.00000000E+00  0.00000000E+00
  0.00000000E+00  0.00000000E+00  0.00000000E+00
  0.00000000E+00  0.00000000E+00  0.00000000E+00
  0.00000000E+00  0.00000000E+00  0.00000000E+00
  0.00000000E+00  0.00000000E+00  0.00000000E+00
  0.00000000E+00  0.00000000E+00  0.00000000E+00
  0.00000000E+00  0.00000000E+00  0.00000000E+00
  0.00000000E+00  0.00000000E+00  0.00000000E+00
  0.00000000E+00  0.00000000E+00  0.00000000E+00
  0.00000000E+00  0.00000000E+00  0.00000000E+00
  0.00000000E+00  0.00000000E+00  0.00000000E+00
  0.00000000E+00  0.00000000E+00  0.00000000E+00
  0.00000000E+00  0.00000000E+00  0.00000000E+00
  0.00000000E+00  0.00000000E+00  0.00000000E+00
  0.00000000E+00  0.00000000E+00  0.00000000E+00
  0.00000000E+00  0.00000000E+00  0.00000000E+00
  0.00000000E+00  0.00000000E+00  0.00000000E+00
  0.00000000E+00  0.00000000E+00  0.00000000E+00
  0.00000000E+00  0.00000000E+00  0.00000000E+00
  0.00000000E+00  0.00000000E+00  0.00000000E+00
  0.00000000E+00  0.00000000E+00  0.00000000E+00
  0.00000000E+00  0.00000000E+00  0.00000000E+00
  0.00000000E+00  0.00000000E+00  0.00000000E+00
  0.00000000E+00  0.00000000E+00  0.00000000E+00
  0.00000000E+00  0.00000000E+00  0.00000000E+00
  0.00000000E+00  0.00000000E+00  0.00000000E+00
  0.00000000E+00  0.00000000E+00  0.00000000E+00
  0.00000000E+00  0.00000000E+00  0.00000000E+00
  0.00000000E+00  0.00000000E+00  0.00000000E+00
  0.00000000E+00  0.00000000E+00  0.00000000E+00
  0.00000000E+00  0.00000000E+00  0.00000000E+00
  0.00000000E+00  0.00000000E+00  0.00000000E+00
  0.00000000E+00  0.00000000E+00  0.00000000E+00
  0.00000000E+00  0.00000000E+00  0.00000000E+00
  0.00000000E+00  0.00000000E+00  0.00000000E+00
  0.00000000E+00  0.00000000E+00  0.00000000E+00
  0.00000000E+00  0.00000000E+00  0.00000000E+00
  0.00000000E+00  0.00000000E+00  0.00000000E+00
  0.00000000E+00  0.00000000E+00  0.00000000E+00
  0.00000000E+00  0.00000000E+00  0.00000000E+00
  0.00000000E+00  0.00000000E+00  0.00000000E+00
  0.00000000E+00  0.00000000E+00  0.00000000E+00
  0.00000000E+00  0.00000000E+00  0.00000000E+00
  0.00000000E+00  0.00000000E+00  0.00000000E+00
  0.00000000E+00  0.00000000E+00  0.00000000E+00
  0.00000000E+00  0.00000000E+00  0.00000000E+00
  0.00000000E+00  0.00000000E+00  0.00000000E+00
  0.00000000E+00  0.00000000E+00  0.00000000E+00
  0.00000000E+00  0.00000000E+00  0.00000000E+00
  0.00000000E+00  0.00000000E+00  0.00000000E+00
  0.00000000E+00  0.00000000E+00  0.00000000E+00
  0.00000000E+00  0.00000000E+00  0.00000000E+00
  0.00000000E+00  0.00000000E+00  0.00000000E+00
  0.00000000E+00  0.00000000E+00  0.00000000E+00
  0.00000000E+00  0.00000000E+00  0.00000000E+00
  0.00000000E+00  0.00000000E+00  0.00000000E+00
  0.00000000E+00  0.00000000E+00  0.00000000E+00
  0.00000000E+00  0.00000000E+00  0.00000000E+00
  0.00000000E+00  0.00000000E+00  0.00000000E+00
  0.00000000E+00  0.00000000E+00  0.00000000E+00
  0.00000000E+00  0.00000000E+00  0.00000000E+00
  0.00000000E+00  0.00000000E+00  0.00000000E+00
  0.00000000E+00  0.00000000E+00  0.00000000E+00
  0.00000000E+00  0.00000000E+00  0.00000000E+00
  0.00000000E+00  0.00000000E+00  0.00000000E+00
  0.00000000E+00  0.00000000E+00  0.00000000E+00
  0.00000000E+00  0.00000000E+00  0.00000000E+00
  0.00000000E+00  0.00000000E+00  0.00000000E+00
  0.00000000E+00  0.00000000E+00  0.00000000E+00
  0.00000000E+00  0.00000000E+00  0.00000000E+00
  0.00000000E+00  0.00000000E+00  0.00000000E+00
  0.00000000E+00  0.00000000E+00  0.00000000E+00
  0.00000000E+00  0.00000000E+00  0.00000000E+00
  0.00000000E+00  0.00000000E+00  0.00000000E+00
  0.00000000E+00  0.00000000E+00  0.00000000E+00
  0.00000000E+00  0.00000000E+00  0.00000000E+00
  0.00000000E+00  0.00000000E+00  0.00000000E+00
  0.00000000E+00  0.00000000E+00  0.00000000E+00
  0.00000000E+00  0.00000000E+00  0.00000000E+00
  0.00000000E+00  0.00000000E+00  0.00000000E+00
  0.00000000E+00  0.00000000E+00  0.00000000E+00
  0.00000000E+00  0.00000000E+00  0.00000000E+00
  0.00000000E+00  0.00000000E+00  0.00000000E+00
  0.00000000E+00  0.00000000E+00  0.00000000E+00
  0.00000000E+00  0.00000000E+00  0.00000000E+00
  0.00000000E+00  0.00000000E+00  0.00000000E+00
  0.00000000E+00  0.00000000E+00  0.00000000E+00
  0.00000000E+00  0.00000000E+00  0.00000000E+00
  0.00000000E+00  0.00000000E+00  0.00000000E+00
  0.00000000E+00  0.00000000E+00  0.00000000E+00
  0.00000000E+00  0.00000000E+00  0.00000000E+00
  0.00000000E+00  0.00000000E+00  0.00000000E+00
  0.00000000E+00  0.00000000E+00  0.00000000E+00
  0.00000000E+00  0.00000000E+00  0.00000000E+00
  0.00000000E+00  0.00000000E+00  0.00000000E+00
  0.00000000E+00  0.00000000E+00  0.00000000E+00
  0.00000000E+00  0.00000000E+00  0.00000000E+00
  0.00000000E+00  0.00000000E+00  0.00000000E+00
  0.00000000E+00  0.00000000E+00  0.00000000E+00
  0.00000000E+00  0.00000000E+00  0.00000000E+00
  0.00000000E+00  0.00000000E+00  0.00000000E+00
  0.00000000E+00  0.00000000E+00  0.00000000E+00
  0.00000000E+00  0.00000000E+00  0.00000000E+00
  0.00000000E+00  0.00000000E+00  0.00000000E+00
  0.00000000E+00  0.00000000E+00  0.00000000E+00
  0.00000000E+00  0.00000000E+00  0.00000000E+00
  0.00000000E+00  0.00000000E+00  0.00000000E+00
  0.00000000E+00  0.00000000E+00  0.00000000E+00
  0.00000000E+00  0.00000000E+00  0.00000000E+00
  0.00000000E+00  0.00000000E+00  0.00000000E+00
  0.00000000E+00  0.00000000E+00  0.00000000E+00
  0.00000000E+00  0.00000000E+00  0.00000000E+00
  0.00000000E+00  0.00000000E+00  0.00000000E+00
  0.00000000E+00  0.00000000E+00  0.00000000E+00
  0.00000000E+00  0.00000000E+00  0.00000000E+00
  0.00000000E+00  0.00000000E+00  0.00000000E+00
  0.00000000E+00  0.00000000E+00  0.00000000E+00
  0.00000000E+00  0.00000000E+00  0.00000000E+00
  0.00000000E+00  0.00000000E+00  0.00000000E+00
  0.00000000E+00  0.00000000E+00  0.00000000E+00
  0.00000000E+00  0.00000000E+00  0.00000000E+00
  0.00000000E+00  0.00000000E+00  0.00000000E+00
  0.00000000E+00  0.00000000E+00  0.00000000E+00
  0.00000000E+00  0.00000000E+00  0.00000000E+00
