ba8 ge16                                
   1.00000000000000     
     9.2729174873682396    0.0000000000000000    0.0000000000000000
     0.0000000000000000    6.8823601773996756    0.0000000000000000
     0.0000000000000000    0.0000000000000000   11.7401627783643878
   Ba   Ge
     8    16
Direct
  0.0143816480262511  0.2500000000663931  0.6905200532743505
  0.9856183552369803  0.7500000176088264  0.3094799467515063
  0.4856183552702765  0.7500000176088264  0.1905199915486858
  0.5143816446631245  0.2500000000663931  0.8094799878775278
  0.1523077530148726  0.7500000176088264  0.9069231921204681
  0.8476922470295291  0.2500000000663931  0.0930767873057457
  0.3476922469518315  0.2500000000663931  0.4069232743337228
  0.6523077529815696  0.7500000176088264  0.5930767668052235
  0.1926200479268692  0.0619522131386249  0.1502495498958437
  0.8073799521175257  0.9380477779794983  0.8497504296165657
  0.3073799520398279  0.9380477779794983  0.6502495704222229
  0.6926200478935730  0.0619522131386249  0.3497504296036341
  0.8073799521175257  0.5619522219762348  0.8497504296165657
  0.1926200479268692  0.4380477779942565  0.1502495498958437
  0.6926200478935730  0.4380477779942565  0.3497504296036341
  0.3073799520398279  0.5619522219762348  0.6502495704222229
  0.0756022642542155  0.7500000176088264  0.5932806735296637
  0.9243977159221962  0.2500000000663931  0.4067193264100040
  0.4243977423721498  0.2500000000663931  0.0932806118901881
  0.5756022840889025  0.7500000176088264  0.9067193675360258
  0.1955665081019466  0.2500000000663931  0.9591593976317910
  0.8044334787341267  0.7500000176088264  0.0408406177360547
  0.3044334786564287  0.7500000176088264  0.4591593154788683
  0.6955665212769720  0.2500000000663931  0.5408406023208016
 
  0.00000000E+00  0.00000000E+00  0.00000000E+00
  0.00000000E+00  0.00000000E+00  0.00000000E+00
  0.00000000E+00  0.00000000E+00  0.00000000E+00
  0.00000000E+00  0.00000000E+00  0.00000000E+00
  0.00000000E+00  0.00000000E+00  0.00000000E+00
  0.00000000E+00  0.00000000E+00  0.00000000E+00
  0.00000000E+00  0.00000000E+00  0.00000000E+00
  0.00000000E+00  0.00000000E+00  0.00000000E+00
  0.00000000E+00  0.00000000E+00  0.00000000E+00
  0.00000000E+00  0.00000000E+00  0.00000000E+00
  0.00000000E+00  0.00000000E+00  0.00000000E+00
  0.00000000E+00  0.00000000E+00  0.00000000E+00
  0.00000000E+00  0.00000000E+00  0.00000000E+00
  0.00000000E+00  0.00000000E+00  0.00000000E+00
  0.00000000E+00  0.00000000E+00  0.00000000E+00
  0.00000000E+00  0.00000000E+00  0.00000000E+00
  0.00000000E+00  0.00000000E+00  0.00000000E+00
  0.00000000E+00  0.00000000E+00  0.00000000E+00
  0.00000000E+00  0.00000000E+00  0.00000000E+00
  0.00000000E+00  0.00000000E+00  0.00000000E+00
  0.00000000E+00  0.00000000E+00  0.00000000E+00
  0.00000000E+00  0.00000000E+00  0.00000000E+00
  0.00000000E+00  0.00000000E+00  0.00000000E+00
  0.00000000E+00  0.00000000E+00  0.00000000E+00
