ba8 si16
1.0
145.6372795105         0.0000000000         0.0000000000
0.0000000000         6.7778496742         0.0000000000
0.0000000000         0.0000000000        11.6021432877
Ba   Si
116     232
Cartesian
0.136700664         1.694462419         8.020677543
9.146167981         1.694462419         8.020677543
18.155635014         1.694462419         8.020677543
27.165104060         1.694462419         8.020677543
36.174571093         1.694462419         8.020677543
45.184038126         1.694462419         8.020677543
54.193505159         1.694462419         8.020677543
63.202972192         1.694462419         8.020677543
72.212439225         1.694462419         8.020677543
81.221906258         1.694462419         8.020677543
90.231373291         1.694462419         8.020677543
99.240840324         1.694462419         8.020677543
108.250315412         1.694462419         8.020677543
117.259782445         1.694462419         8.020677543
126.269249478         1.694462419         8.020677543
8.872766085         5.083387256         3.581465745
17.882233118         5.083387256         3.581465745
26.891702165         5.083387256         3.581465745
35.901169198         5.083387256         3.581465745
44.910636231         5.083387256         3.581465745
53.920103264         5.083387256         3.581465745
62.929570297         5.083387256         3.581465745
71.939041357         5.083387256         3.581465745
80.948508390         5.083387256         3.581465745
89.957975423         5.083387256         3.581465745
98.967442456         5.083387256         3.581465745
107.976909489         5.083387256         3.581465745
116.986376522         5.083387256         3.581465745
125.995843555         5.083387256         3.581465745
4.368033576         5.083387256         2.219605207
13.377501616         5.083387256         2.219605207
22.386968649         5.083387256         2.219605207
31.396435682         5.083387256         2.219605207
40.405902715         5.083387256         2.219605207
49.415369747         5.083387256         2.219605207
58.424840808         5.083387256         2.219605207
67.434307841         5.083387256         2.219605207
76.443770846         5.083387256         2.219605207
85.453237879         5.083387256         2.219605207
94.462712967         5.083387256         2.219605207
103.472180000         5.083387256         2.219605207
112.481647033         5.083387256         2.219605207
121.491114066         5.083387256         2.219605207
130.500581099         5.083387256         2.219605207
4.641434464         1.694462419         9.382538080
13.650902504         1.694462419         9.382538080
22.660370544         1.694462419         9.382538080
31.669837577         1.694462419         9.382538080
40.679304610         1.694462419         9.382538080
49.688771643         1.694462419         9.382538080
58.698238676         1.694462419         9.382538080
67.707709736         1.694462419         9.382538080
76.717176769         1.694462419         9.382538080
85.726643802         1.694462419         9.382538080
94.736110835         1.694462419         9.382538080
103.745577868         1.694462419         9.382538080
112.755044901         1.694462419         9.382538080
121.764511934         1.694462419         9.382538080
1.435289343         5.083387256        10.519083290
10.444756501         5.083387256        10.519083290
19.454224541         5.083387256        10.519083290
28.463691574         5.083387256        10.519083290
37.473160621         5.083387256        10.519083290
46.482627654         5.083387256        10.519083290
55.492094687         5.083387256        10.519083290
64.501561720         5.083387256        10.519083290
73.511032781         5.083387256        10.519083290
82.520499814         5.083387256        10.519083290
91.529966846         5.083387256        10.519083290
100.539433879         5.083387256        10.519083290
109.548900912         5.083387256        10.519083290
118.558367945         5.083387256        10.519083290
127.567834978         5.083387256        10.519083290
7.574179075         1.694462419         1.083059997
16.583646611         1.694462419         1.083059997
25.593114651         1.694462419         1.083059997
34.602583698         1.694462419         1.083059997
43.612050731         1.694462419         1.083059997
52.621517764         1.694462419         1.083059997
61.630984797         1.694462419         1.083059997
70.640455857         1.694462419         1.083059997
79.649922890         1.694462419         1.083059997
88.659389923         1.694462419         1.083059997
97.668856956         1.694462419         1.083059997
106.678323989         1.694462419         1.083059997
115.687791022         1.694462419         1.083059997
124.697258055         1.694462419         1.083059997
3.069444300         1.694462419         4.718012338
12.078912088         1.694462419         4.718012338
21.088379121         1.694462419         4.718012338
30.097846154         1.694462419         4.718012338
39.107313187         1.694462419         4.718012338
48.116780220         1.694462419         4.718012338
57.126251280         1.694462419         4.718012338
66.135718313         1.694462419         4.718012338
75.145185346         1.694462419         4.718012338
84.154652379         1.694462419         4.718012338
93.164119412         1.694462419         4.718012338
102.173586445         1.694462419         4.718012338
111.183053478         1.694462419         4.718012338
120.192520511         1.694462419         4.718012338
129.201987544         1.694462419         4.718012338
5.940023488         5.083387256         6.884131641
14.949491025         5.083387256         6.884131641
23.958958058         5.083387256         6.884131641
32.968427105         5.083387256         6.884131641
41.977894138         5.083387256         6.884131641
50.987361171         5.083387256         6.884131641
59.996828204         5.083387256         6.884131641
69.006295236         5.083387256         6.884131641
78.015762269         5.083387256         6.884131641
87.025229302         5.083387256         6.884131641
96.034696335         5.083387256         6.884131641
105.044163368         5.083387256         6.884131641
114.053630401         5.083387256         6.884131641
123.063105489         5.083387256         6.884131641
1.750269104         0.491671983         1.702544891
10.759736766         0.491671983         1.702544891
19.769204806         0.491671983         1.702544891
28.778671839         0.491671983         1.702544891
37.788138872         0.491671983         1.702544891
46.797605905         0.491671983         1.702544891
55.807072938         0.491671983         1.702544891
64.816543999         0.491671983         1.702544891
73.826011032         0.491671983         1.702544891
82.835478065         0.491671983         1.702544891
91.844945098         0.491671983         1.702544891
100.854412131         0.491671983         1.702544891
109.863879164         0.491671983         1.702544891
118.873346197         0.491671983         1.702544891
127.882813230         0.491671983         1.702544891
7.259198810         6.286177691         9.899598224
16.268666346         6.286177691         9.899598224
25.278134386         6.286177691         9.899598224
34.287601419         6.286177691         9.899598224
43.297068452         6.286177691         9.899598224
52.306535485         6.286177691         9.899598224
61.316002518         6.286177691         9.899598224
70.325469551         6.286177691         9.899598224
79.334936584         6.286177691         9.899598224
88.344403617         6.286177691         9.899598224
97.353870650         6.286177691         9.899598224
106.363345738         6.286177691         9.899598224
115.372812771         6.286177691         9.899598224
124.382279804         6.286177691         9.899598224
2.754464538         6.286177691         7.503616707
11.763931823         6.286177691         7.503616707
20.773398856         6.286177691         7.503616707
29.782867903         6.286177691         7.503616707
38.792334936         6.286177691         7.503616707
47.801801969         6.286177691         7.503616707
56.811269002         6.286177691         7.503616707
65.820736035         6.286177691         7.503616707
74.830207095         6.286177691         7.503616707
83.839674128         6.286177691         7.503616707
92.849141161         6.286177691         7.503616707
101.858608194         6.286177691         7.503616707
110.868075227         6.286177691         7.503616707
119.877542260         6.286177691         7.503616707
128.887009293         6.286177691         7.503616707
6.255003250         0.491671983         4.098526580
15.264471290         0.491671983         4.098526580
24.273938323         0.491671983         4.098526580
33.283405356         0.491671983         4.098526580
42.292872389         0.491671983         4.098526580
51.302339422         0.491671983         4.098526580
60.311810482         0.491671983         4.098526580
69.321273488         0.491671983         4.098526580
78.330740521         0.491671983         4.098526580
87.340207554         0.491671983         4.098526580
96.349682642         0.491671983         4.098526580
105.359149675         0.491671983         4.098526580
114.368616708         0.491671983         4.098526580
123.378083741         0.491671983         4.098526580
7.259198810         3.880596820         9.899598224
16.268666346         3.880596820         9.899598224
25.278134386         3.880596820         9.899598224
34.287601419         3.880596820         9.899598224
43.297068452         3.880596820         9.899598224
52.306535485         3.880596820         9.899598224
61.316002518         3.880596820         9.899598224
70.325469551         3.880596820         9.899598224
79.334936584         3.880596820         9.899598224
88.344403617         3.880596820         9.899598224
97.353870650         3.880596820         9.899598224
106.363345738         3.880596820         9.899598224
115.372812771         3.880596820         9.899598224
124.382279804         3.880596820         9.899598224
1.750269104         2.897252854         1.702544891
10.759736766         2.897252854         1.702544891
19.769204806         2.897252854         1.702544891
28.778671839         2.897252854         1.702544891
37.788138872         2.897252854         1.702544891
46.797605905         2.897252854         1.702544891
55.807072938         2.897252854         1.702544891
64.816543999         2.897252854         1.702544891
73.826011032         2.897252854         1.702544891
82.835478065         2.897252854         1.702544891
91.844945098         2.897252854         1.702544891
100.854412131         2.897252854         1.702544891
109.863879164         2.897252854         1.702544891
118.873346197         2.897252854         1.702544891
127.882813230         2.897252854         1.702544891
6.255003250         2.897252854         4.098526580
15.264471290         2.897252854         4.098526580
24.273938323         2.897252854         4.098526580
33.283405356         2.897252854         4.098526580
42.292872389         2.897252854         4.098526580
51.302339422         2.897252854         4.098526580
60.311810482         2.897252854         4.098526580
69.321273488         2.897252854         4.098526580
78.330740521         2.897252854         4.098526580
87.340207554         2.897252854         4.098526580
96.349682642         2.897252854         4.098526580
105.359149675         2.897252854         4.098526580
114.368616708         2.897252854         4.098526580
123.378083741         2.897252854         4.098526580
2.754464538         3.880596820         7.503616707
11.763931823         3.880596820         7.503616707
20.773398856         3.880596820         7.503616707
29.782867903         3.880596820         7.503616707
38.792334936         3.880596820         7.503616707
47.801801969         3.880596820         7.503616707
56.811269002         3.880596820         7.503616707
65.820736035         3.880596820         7.503616707
74.830207095         3.880596820         7.503616707
83.839674128         3.880596820         7.503616707
92.849141161         3.880596820         7.503616707
101.858608194         3.880596820         7.503616707
110.868075227         3.880596820         7.503616707
119.877542260         3.880596820         7.503616707
128.887009293         3.880596820         7.503616707
0.746929964         5.083387256         6.868480671
9.756397563         5.083387256         6.868480671
18.765864596         5.083387256         6.868480671
27.775333643         5.083387256         6.868480671
36.784800676         5.083387256         6.868480671
45.794267709         5.083387256         6.868480671
54.803734742         5.083387256         6.868480671
63.813201775         5.083387256         6.868480671
72.822668808         5.083387256         6.868480671
81.832135841         5.083387256         6.868480671
90.841602874         5.083387256         6.868480671
99.851069907         5.083387256         6.868480671
108.860536940         5.083387256         6.868480671
117.870012028         5.083387256         6.868480671
126.879479061         5.083387256         6.868480671
8.262537509         1.694462419         4.733662617
17.272005549         1.694462419         4.733662617
26.281472582         1.694462419         4.733662617
35.290939615         1.694462419         4.733662617
44.300406648         1.694462419         4.733662617
53.309873681         1.694462419         4.733662617
62.319344742         1.694462419         4.733662617
71.328811775         1.694462419         4.733662617
80.338278808         1.694462419         4.733662617
89.347745841         1.694462419         4.733662617
98.357212874         1.694462419         4.733662617
107.366679907         1.694462419         4.733662617
116.376146940         1.694462419         4.733662617
125.385613973         1.694462419         4.733662617
3.757804245         1.694462419         1.067408336
12.767272033         1.694462419         1.067408336
21.776739066         1.694462419         1.067408336
30.786206099         1.694462419         1.067408336
39.795673132         1.694462419         1.067408336
48.805140165         1.694462419         1.067408336
57.814611225         1.694462419         1.067408336
66.824078258         1.694462419         1.067408336
75.833541264         1.694462419         1.067408336
84.843016352         1.694462419         1.067408336
93.852483385         1.694462419         1.067408336
102.861950418         1.694462419         1.067408336
111.871417451         1.694462419         1.067408336
120.880884484         1.694462419         1.067408336
129.890351517         1.694462419         1.067408336
5.251663544         5.083387256        10.534734952
14.261131080         5.083387256        10.534734952
23.270598113         5.083387256        10.534734952
32.280067160         5.083387256        10.534734952
41.289534193         5.083387256        10.534734952
50.299001226         5.083387256        10.534734952
59.308468259         5.083387256        10.534734952
68.317939319         5.083387256        10.534734952
77.327406352         5.083387256        10.534734952
86.336873385         5.083387256        10.534734952
95.346340418         5.083387256        10.534734952
104.355807451         5.083387256        10.534734952
113.365274484         5.083387256        10.534734952
122.374741517         5.083387256        10.534734952
1.781117714         1.694462419        11.218576265
10.790585754         1.694462419        11.218576265
19.800053794         1.694462419        11.218576265
28.809520827         1.694462419        11.218576265
37.818989874         1.694462419        11.218576265
46.828456907         1.694462419        11.218576265
55.837923939         1.694462419        11.218576265
64.847390972         1.694462419        11.218576265
73.856862033         1.694462419        11.218576265
82.866329066         1.694462419        11.218576265
91.875796099         1.694462419        11.218576265
100.885263132         1.694462419        11.218576265
109.894730165         1.694462419        11.218576265
118.904197198         1.694462419        11.218576265
127.913664231         1.694462419        11.218576265
7.228349319         5.083387256         0.383567022
16.237817359         5.083387256         0.383567022
25.247285399         5.083387256         0.383567022
34.256750418         5.083387256         0.383567022
43.266221478         5.083387256         0.383567022
52.275688511         5.083387256         0.383567022
61.285155544         5.083387256         0.383567022
70.294618550         5.083387256         0.383567022
79.304093638         5.083387256         0.383567022
88.313560671         5.083387256         0.383567022
97.323027704         5.083387256         0.383567022
106.332494737         5.083387256         0.383567022
115.341961770         5.083387256         0.383567022
124.351428803         5.083387256         0.383567022
2.723616306         5.083387256         5.417503930
11.733083842         5.083387256         5.417503930
20.742551882         5.083387256         5.417503930
29.752018915         5.083387256         5.417503930
38.761487962         5.083387256         5.417503930
47.770954995         5.083387256         5.417503930
56.780422028         5.083387256         5.417503930
65.789889061         5.083387256         5.417503930
74.799356094         5.083387256         5.417503930
83.808823127         5.083387256         5.417503930
92.818290160         5.083387256         5.417503930
101.827757193         5.083387256         5.417503930
110.837224226         5.083387256         5.417503930
119.846691259         5.083387256         5.417503930
128.856158292         5.083387256         5.417503930
6.285851231         1.694462419         6.184638666
15.295319270         1.694462419         6.184638666
24.304787310         1.694462419         6.184638666
33.314254343         1.694462419         6.184638666
42.323723390         1.694462419         6.184638666
51.333190423         1.694462419         6.184638666
60.342657456         1.694462419         6.184638666
69.352124489         1.694462419         6.184638666
78.361591522         1.694462419         6.184638666
87.371058555         1.694462419         6.184638666
96.380525588         1.694462419         6.184638666
105.389992621         1.694462419         6.184638666
114.399459654         1.694462419         6.184638666
123.408926687         1.694462419         6.184638666
