si4
1.0
        9.0094680786         0.0000000000         0.0000000000
        0.0000000000         6.7778496742         0.0000000000
        0.0000000000         0.0000000000        11.6021432877
Si
4
Cartesian
     2.754464626         6.286177635         7.503616810
     2.754464626         3.880596876         7.503616810
     0.746929944         5.083387375         6.868480682
     2.723616123         5.083387375         5.417503834
