ba8 si16                                
   1.00000000000000     
     7.6094680785999991    0.0000000000000000    0.0000000000000000
     0.0000000000000000    6.7778496741999996    0.0000000000000000
     0.0000000000000000    0.0000000000000000   11.6021432877000006
   Ba   Si
     8    16
Selective Dynamics
Direct
  0.0149197066691082  0.2500000000663931  0.6920804585647785 F T T
  0.9850802965941233  0.7500000176088264  0.3079195414610780 F T T
  0.4850802966274194  0.7500000176088264  0.1920803968391141 F T T
  0.5149197033059815  0.2500000000663931  0.8079195825870998 F T T
  0.1589505310825618  0.7500000176088264  0.9062076708898348 F T T
  0.8410494689618400  0.2500000000663931  0.0937923085363786 F T T
  0.3410494688841421  0.2500000000663931  0.4062077531030900 F T T
  0.6589505310492587  0.7500000176088264  0.5937922880358568 F T T
  0.1937426865056822  0.0716669380189671  0.1459565820765807 F T T
  0.8062573135387127  0.9283330530991560  0.8540433974358288 F T T
  0.3062573134610146  0.9283330530991560  0.6459566026029597 F T T
  0.6937426864723860  0.0716669380189671  0.3540433974228970 F T T
  0.8062573135387127  0.5716669468565772  0.8540433974358288 F T T
  0.1937426865056822  0.4283330531139143  0.1459565820765807 F T T
  0.6937426864723860  0.4283330531139143  0.3540433974228970 F T T
  0.3062573134610146  0.5716669468565772  0.6459566026029597 F T T
  0.0833401300802412  0.7500000176088264  0.5907703435147269 F T T
  0.9166598500961707  0.2500000000663931  0.4092296564249410 F T T
  0.4166598765461241  0.2500000000663931  0.0907702818752511 F T T
  0.5833401499149280  0.7500000176088264  0.9092296975509626 F T T
  0.1968145782299044  0.2500000000663931  0.9655476456826423 F T T
  0.8031854086061688  0.7500000176088264  0.0344523696852034 F T T
  0.3031854085284711  0.7500000176088264  0.4655475635297195 F T T
  0.6968145914049299  0.2500000000663931  0.5344523542699503 F T T
