ba8 si16                                
   1.00000000000000     
     8.5058349162183085   -0.0000000000000000    0.0000000000000000
    -0.0000000000000000    6.7258520391812846    0.0000000000000000
     0.0000000000000000    0.0000000000000000   11.5054846474568784
   Ba   Si
     8    16
Direct
  0.0154104133484972  0.2500000000663931  0.6921559593102621
  0.9845895899147344  0.7500000176088264  0.3078440407155946
  0.4845895899480304  0.7500000176088264  0.1921558975845973
  0.5154104099853704  0.2500000000663931  0.8078440818416163
  0.1607561261508257  0.7500000176088264  0.9064132994189736
  0.8392438738935760  0.2500000000663931  0.0935866800072402
  0.3392438738158783  0.2500000000663931  0.4064133816322283
  0.6607561261175227  0.7500000176088264  0.5935866595067180
  0.1933451274034382  0.0709430650486012  0.1462722171157984
  0.8066548726409564  0.9290569260695222  0.8537277623966115
  0.3066548725632587  0.9290569260695222  0.6462722376421770
  0.6933451273701423  0.0709430650486012  0.3537277623836796
  0.8066548726409564  0.5709430738862110  0.8537277623966115
  0.1933451274034382  0.4290569260842803  0.1462722171157984
  0.6933451273701423  0.4290569260842803  0.3537277623836796
  0.3066548725632587  0.5709430738862110  0.6462722376421770
  0.0813652013001633  0.7500000176088264  0.5908922114270188
  0.9186347788762486  0.2500000000663931  0.4091077885126493
  0.4186348053262020  0.2500000000663931  0.0908921497875430
  0.5813652211348501  0.7500000176088264  0.9091078296386708
  0.1964353775186623  0.2500000000663931  0.9648295076173468
  0.8035646093174108  0.7500000176088264  0.0351705077504989
  0.3035646092397131  0.7500000176088264  0.4648294254644239
  0.6964353906936879  0.2500000000663931  0.5351704923352458
 
  0.00000000E+00  0.00000000E+00  0.00000000E+00
  0.00000000E+00  0.00000000E+00  0.00000000E+00
  0.00000000E+00  0.00000000E+00  0.00000000E+00
  0.00000000E+00  0.00000000E+00  0.00000000E+00
  0.00000000E+00  0.00000000E+00  0.00000000E+00
  0.00000000E+00  0.00000000E+00  0.00000000E+00
  0.00000000E+00  0.00000000E+00  0.00000000E+00
  0.00000000E+00  0.00000000E+00  0.00000000E+00
  0.00000000E+00  0.00000000E+00  0.00000000E+00
  0.00000000E+00  0.00000000E+00  0.00000000E+00
  0.00000000E+00  0.00000000E+00  0.00000000E+00
  0.00000000E+00  0.00000000E+00  0.00000000E+00
  0.00000000E+00  0.00000000E+00  0.00000000E+00
  0.00000000E+00  0.00000000E+00  0.00000000E+00
  0.00000000E+00  0.00000000E+00  0.00000000E+00
  0.00000000E+00  0.00000000E+00  0.00000000E+00
  0.00000000E+00  0.00000000E+00  0.00000000E+00
  0.00000000E+00  0.00000000E+00  0.00000000E+00
  0.00000000E+00  0.00000000E+00  0.00000000E+00
  0.00000000E+00  0.00000000E+00  0.00000000E+00
  0.00000000E+00  0.00000000E+00  0.00000000E+00
  0.00000000E+00  0.00000000E+00  0.00000000E+00
  0.00000000E+00  0.00000000E+00  0.00000000E+00
  0.00000000E+00  0.00000000E+00  0.00000000E+00
