ba8 ge16                                
   1.00000000000000     
     8.9070294997682673   -0.0000000000000000    0.0000000000000000
     0.0000000000000000    6.7003566861794273    0.0000000000000000
     0.0000000000000000    0.0000000000000000   11.3786635935978868
   Ba   Ge
     8    16
Direct
  0.0168371938420576  0.2500000000663931  0.6899264746834171
  0.9831628094211735  0.7500000176088264  0.3100735253424395
  0.4831628094544700  0.7500000176088264  0.1899264129577526
  0.5168371904789313  0.2500000000663931  0.8100735664684613
  0.1581935277741171  0.7500000176088264  0.9072144877311430
  0.8418064722702848  0.2500000000663931  0.0927854916950709
  0.3418064721925868  0.2500000000663931  0.4072145699443977
  0.6581935277408139  0.7500000176088264  0.5927854711945486
  0.1889745240134240  0.0607198706702881  0.1505024434287784
  0.8110254760309704  0.9392801204478354  0.8494975360836315
  0.3110254759532726  0.9392801204478354  0.6505024639551570
  0.6889745239801283  0.0607198706702881  0.3494975360706995
  0.8110254760309704  0.5607198795078978  0.8494975360836315
  0.1889745240134240  0.4392801204625934  0.1505024434287784
  0.6889745239801283  0.4392801204625934  0.3494975360706995
  0.3110254759532726  0.5607198795078978  0.6505024639551570
  0.0727696368289221  0.7500000176088264  0.5948029456434891
  0.9272303433474899  0.2500000000663931  0.4051970542961786
  0.4272303697974430  0.2500000000663931  0.0948028840040134
  0.5727696566636088  0.7500000176088264  0.9051970954222004
  0.1928112229778611  0.2500000000663931  0.9571753952308143
  0.8071887638582121  0.7500000176088264  0.0428246201370315
  0.3071887637805143  0.7500000176088264  0.4571753130778914
  0.6928112361528865  0.2500000000663931  0.5428246047217783
 
  0.00000000E+00  0.00000000E+00  0.00000000E+00
  0.00000000E+00  0.00000000E+00  0.00000000E+00
  0.00000000E+00  0.00000000E+00  0.00000000E+00
  0.00000000E+00  0.00000000E+00  0.00000000E+00
  0.00000000E+00  0.00000000E+00  0.00000000E+00
  0.00000000E+00  0.00000000E+00  0.00000000E+00
  0.00000000E+00  0.00000000E+00  0.00000000E+00
  0.00000000E+00  0.00000000E+00  0.00000000E+00
  0.00000000E+00  0.00000000E+00  0.00000000E+00
  0.00000000E+00  0.00000000E+00  0.00000000E+00
  0.00000000E+00  0.00000000E+00  0.00000000E+00
  0.00000000E+00  0.00000000E+00  0.00000000E+00
  0.00000000E+00  0.00000000E+00  0.00000000E+00
  0.00000000E+00  0.00000000E+00  0.00000000E+00
  0.00000000E+00  0.00000000E+00  0.00000000E+00
  0.00000000E+00  0.00000000E+00  0.00000000E+00
  0.00000000E+00  0.00000000E+00  0.00000000E+00
  0.00000000E+00  0.00000000E+00  0.00000000E+00
  0.00000000E+00  0.00000000E+00  0.00000000E+00
  0.00000000E+00  0.00000000E+00  0.00000000E+00
  0.00000000E+00  0.00000000E+00  0.00000000E+00
  0.00000000E+00  0.00000000E+00  0.00000000E+00
  0.00000000E+00  0.00000000E+00  0.00000000E+00
  0.00000000E+00  0.00000000E+00  0.00000000E+00
