C                                       
   1.00000000000000     
     2.4670760189825969    0.0000000000000000    0.0000000000000000
    -1.2335380094912984    2.1365505055159804   -0.0000000000000000
    -0.0000000000000000    0.0000000000000000    8.6880205567
   C 
     4
Selective Dynamics
Direct
     0.0000000000000000         -0.0000000000000000         -0.0 T T F
 -0.0000000000000000 -0.0000000000000000  0.5000000000597353 T T F
     0.3333333432379320         0.6666666864758639         0.0 T T F
  0.6666666270498567  0.3333333133830934  0.5000000000597353 T T F
