ba8 si16
1.0
       24.0094680786         0.0000000000         0.0000000000
        0.0000000000         6.7778496742         0.0000000000
        0.0000000000         0.0000000000        11.6021432877
   Ba   Si
    8   16
Selective Dynamics
Cartesian
     0.136700660         1.694462419         8.020677567 F T T
     8.602767448         5.083387375         3.581465721 F T T
     4.368033409         5.083387375         2.219605207 F T T
     4.371434669         1.694462419         9.382537842 F T T
     1.435289383         5.083387375        10.519083023 F T T
     7.304178696         1.694462419         1.083060026 F T T
     3.069444656         1.694462419         4.718012333 F T T
     5.670023422         5.083387375         6.884131432 F T T
     1.750269413         0.491671979         1.702544928 F T T
     6.989198666         6.286177635         9.899598122 F T T
     2.754464626         6.286177635         7.503616810 F T T
     5.985003452         0.491671979         4.098526478 F T T
     6.989198666         3.880596876         9.899598122 F T T
     1.750269413         2.897252798         1.702544928 F T T
     5.985003452         2.897252798         4.098526478 F T T
     2.754464626         3.880596876         7.503616810 F T T
     0.746929944         5.083387375         6.868480682 F T T
     7.992537956         1.694462419         4.733662605 F T T
     3.757804155         1.694462419         1.067408323 F T T
     4.981664162         5.083387375         10.534734726 F T T
     1.781117797         1.694462419        11.218576431 F T T
     6.958350163         5.083387375         0.383567035 F T T
     2.723616123         5.083387375         5.417503834 F T T
     6.015851955         1.694462419         6.184638500 F T T
