ba8 si16                                
   1.00000000000000     
    37.3490772946881933    0.0000000000000000    0.0000000000000000
     0.0000000000000000    6.6595882813076663    0.0000000000000000
     0.0000000000000000    0.0000000000000000   11.4096824852577701
   Ba   Si
    20    40
Direct
  0.0084341758402729  0.2500000000663931  0.7002060827234200
  0.2442671172637780  0.2500000000663931  0.6897579524659770
  0.4869098871332532  0.2500000000663931  0.6922327083545138
  0.2362623065958835  0.7500000176088264  0.3091658086160480
  0.4760088296091596  0.7500000176088264  0.3089428190457943
  0.1133424611058781  0.7500000176088264  0.1922326466288490
  0.3559852309753600  0.7500000176088264  0.1897578907403126
  0.5918181731983535  0.7500000176088264  0.2002060209977557
  0.1242434677820696  0.2500000000663931  0.8089428601718157
  0.3639900416432474  0.2500000000663931  0.8091658497420695
  0.0515115117678646  0.7500000176088264  0.9122117145439311
  0.2788777058237626  0.7500000176088264  0.9050585345628697
  0.5170704527062879  0.7500000176088264  0.8957980783193390
  0.2006211835454800  0.2500000000663931  0.0930513299919888
  0.4413681219631962  0.2500000000663931  0.0952547340752142
  0.0831819209568012  0.2500000000663931  0.3957981605325940
  0.3213746170180771  0.2500000000663931  0.4050586167761247
  0.5487408110739678  0.2500000000663931  0.4122117967571863
  0.1588842008519911  0.7500000176088264  0.5952547135746921
  0.3996311520083316  0.7500000176088264  0.5930513094914667
  0.0430764227147103  0.0704535108486166  0.1467064625674084
  0.2856922236986389  0.0693685698085193  0.1457624291968094
  0.5257938528493673  0.0704972687721382  0.1415905988473395
  0.1951455348520035  0.9310271662572489  0.8535937773797396
  0.4343553709597698  0.9313609496200780  0.8525400337124495
  0.0744585081017496  0.9295027223459853  0.6415906193737181
  0.3145601245404993  0.9306314213096044  0.6457624497231881
  0.5571759128124488  0.9295464802695067  0.6467064830937870
  0.1658969645673895  0.0686390414980458  0.3525400336995178
  0.4051067879898363  0.0689728248608744  0.3535937773668079
  0.1951455348520035  0.5689728336984843  0.8535937773797396
  0.4343553709597698  0.5686390503356552  0.8525400337124495
  0.0430764227147103  0.4295464802842649  0.1467064625674084
  0.2856922236986389  0.4306314213243621  0.1457624291968094
  0.5257938528493673  0.4295027223607433  0.1415905988473395
  0.1658969645673895  0.4313609496348356  0.3525400336995178
  0.4051067879898363  0.4310271662720070  0.3535937773668079
  0.0744585081017496  0.5704972776097479  0.6415906193737181
  0.3145601245404993  0.5693685786461288  0.6457624497231881
  0.5571759128124488  0.5704535196862265  0.6467064830937870
  0.0179006652275983  0.7500000176088264  0.6172490986980176
  0.2606756406661292  0.7500000176088264  0.5920874823945530
  0.5024367876415757  0.7500000176088264  0.5828749911320018
  0.2194265571689040  0.2500000000663931  0.4078481895159343
  0.4584911299262981  0.2500000000663931  0.4086766435324724
  0.0978155097763056  0.2500000000663931  0.0828749294925263
  0.3395767075730019  0.2500000000663931  0.0920874207550775
  0.5823516782678644  0.2500000000663931  0.1172490370585419
  0.1417611674915836  0.7500000176088264  0.9086766846584946
  0.3808257402489776  0.7500000176088264  0.9078482306419560
  0.0433323834978658  0.2500000000663931  0.9631123631271314
  0.2868520600628476  0.2500000000663931  0.9632642199471452
  0.5379847019091561  0.2500000000663931  0.9606718908040391
  0.1933808995868120  0.7500000176088264  0.0370078711958878
  0.4334966110946903  0.7500000176088264  0.0355297896235973
  0.0622676336180029  0.7500000176088264  0.4606718086511165
  0.3134002882029360  0.7500000176088264  0.4632641377942229
  0.5569199742819142  0.7500000176088264  0.4631122809742090
  0.1667557498564199  0.2500000000663931  0.5355297742083441
  0.4068714232283754  0.2500000000663931  0.5370078557806347
 
  0.00000000E+00  0.00000000E+00  0.00000000E+00
  0.00000000E+00  0.00000000E+00  0.00000000E+00
  0.00000000E+00  0.00000000E+00  0.00000000E+00
  0.00000000E+00  0.00000000E+00  0.00000000E+00
  0.00000000E+00  0.00000000E+00  0.00000000E+00
  0.00000000E+00  0.00000000E+00  0.00000000E+00
  0.00000000E+00  0.00000000E+00  0.00000000E+00
  0.00000000E+00  0.00000000E+00  0.00000000E+00
  0.00000000E+00  0.00000000E+00  0.00000000E+00
  0.00000000E+00  0.00000000E+00  0.00000000E+00
  0.00000000E+00  0.00000000E+00  0.00000000E+00
  0.00000000E+00  0.00000000E+00  0.00000000E+00
  0.00000000E+00  0.00000000E+00  0.00000000E+00
  0.00000000E+00  0.00000000E+00  0.00000000E+00
  0.00000000E+00  0.00000000E+00  0.00000000E+00
  0.00000000E+00  0.00000000E+00  0.00000000E+00
  0.00000000E+00  0.00000000E+00  0.00000000E+00
  0.00000000E+00  0.00000000E+00  0.00000000E+00
  0.00000000E+00  0.00000000E+00  0.00000000E+00
  0.00000000E+00  0.00000000E+00  0.00000000E+00
  0.00000000E+00  0.00000000E+00  0.00000000E+00
  0.00000000E+00  0.00000000E+00  0.00000000E+00
  0.00000000E+00  0.00000000E+00  0.00000000E+00
  0.00000000E+00  0.00000000E+00  0.00000000E+00
  0.00000000E+00  0.00000000E+00  0.00000000E+00
  0.00000000E+00  0.00000000E+00  0.00000000E+00
  0.00000000E+00  0.00000000E+00  0.00000000E+00
  0.00000000E+00  0.00000000E+00  0.00000000E+00
  0.00000000E+00  0.00000000E+00  0.00000000E+00
  0.00000000E+00  0.00000000E+00  0.00000000E+00
  0.00000000E+00  0.00000000E+00  0.00000000E+00
  0.00000000E+00  0.00000000E+00  0.00000000E+00
  0.00000000E+00  0.00000000E+00  0.00000000E+00
  0.00000000E+00  0.00000000E+00  0.00000000E+00
  0.00000000E+00  0.00000000E+00  0.00000000E+00
  0.00000000E+00  0.00000000E+00  0.00000000E+00
  0.00000000E+00  0.00000000E+00  0.00000000E+00
  0.00000000E+00  0.00000000E+00  0.00000000E+00
  0.00000000E+00  0.00000000E+00  0.00000000E+00
  0.00000000E+00  0.00000000E+00  0.00000000E+00
  0.00000000E+00  0.00000000E+00  0.00000000E+00
  0.00000000E+00  0.00000000E+00  0.00000000E+00
  0.00000000E+00  0.00000000E+00  0.00000000E+00
  0.00000000E+00  0.00000000E+00  0.00000000E+00
  0.00000000E+00  0.00000000E+00  0.00000000E+00
  0.00000000E+00  0.00000000E+00  0.00000000E+00
  0.00000000E+00  0.00000000E+00  0.00000000E+00
  0.00000000E+00  0.00000000E+00  0.00000000E+00
  0.00000000E+00  0.00000000E+00  0.00000000E+00
  0.00000000E+00  0.00000000E+00  0.00000000E+00
  0.00000000E+00  0.00000000E+00  0.00000000E+00
  0.00000000E+00  0.00000000E+00  0.00000000E+00
  0.00000000E+00  0.00000000E+00  0.00000000E+00
  0.00000000E+00  0.00000000E+00  0.00000000E+00
  0.00000000E+00  0.00000000E+00  0.00000000E+00
  0.00000000E+00  0.00000000E+00  0.00000000E+00
  0.00000000E+00  0.00000000E+00  0.00000000E+00
  0.00000000E+00  0.00000000E+00  0.00000000E+00
  0.00000000E+00  0.00000000E+00  0.00000000E+00
  0.00000000E+00  0.00000000E+00  0.00000000E+00
