ba8 si16                                
   1.00000000000000     
    50.7017579519247903    0.0000000000000000   -0.0019150827282775
     0.0000000000000000    6.6836886014350831    0.0000000000000000
    -0.0007104824969028    0.0000000000000000   11.4447857522378307
   Ba   Si
    32    64
Direct
  0.0064655121574707  0.2500000000663931  0.7003024425997122
  0.1795496040995793  0.2500000000663931  0.6902968916742238
  0.3558914958768116  0.2500000000663931  0.6910332025788697
  0.5324005012887406  0.2500000000663931  0.6915249181225492
  0.1737000809990766  0.7500000176088264  0.3084750819033076
  0.3502091051226086  0.7500000176088264  0.3089667974469871
  0.5265510155722503  0.7500000176088264  0.3097031083516329
  0.6996351081021558  0.7500000176088264  0.2996975574261448
  0.0834429347146629  0.7500000176088264  0.1924044486525997
  0.2619046258859712  0.7500000176088264  0.1911509951008775
  0.4384744957402978  0.7500000176088264  0.1908208832229241
  0.6145757337864038  0.7500000176088264  0.1916622311863376
  0.0915248858854183  0.2500000000663931  0.8083377482398756
  0.2676261239315246  0.2500000000663931  0.8091790962032900
  0.4441959564214499  0.2500000000663931  0.8088489843253360
  0.6226576475927508  0.2500000000663931  0.8075955307736140
  0.0379279933577799  0.7500000176088264  0.9117714061966918
  0.2053059764973407  0.7500000176088264  0.9060076437963962
  0.3814313919009678  0.7500000176088264  0.9057735065804815
  0.5586357608355537  0.7500000176088264  0.9071632150643375
  0.1474648401638662  0.2500000000663931  0.0928367643618760
  0.3246692090788556  0.2500000000663931  0.0942264728457324
  0.5007946245020796  0.2500000000663931  0.0939923356298173
  0.6681726450060484  0.2500000000663931  0.0882285732295220
  0.0611120591813347  0.2500000000663931  0.3951389714687261
  0.2364611381854846  0.2500000000663931  0.4051421683302299
  0.4129664322783981  0.2500000000663931  0.4059251529536225
  0.5890488744438848  0.2500000000663931  0.4049483695290598
  0.1170517265359384  0.7500000176088264  0.5950516716098866
  0.2931341687210221  0.7500000176088264  0.5940748881853237
  0.4696394627943389  0.7500000176088264  0.5948578728087164
  0.6449885044340732  0.7500000176088264  0.6048610696702200
  0.0319629440562177  0.0710642996879971  0.1453423801996958
  0.2101835257586240  0.0699247705522809  0.1460497467639443
  0.3868633732720662  0.0698603532858680  0.1462191392161102
  0.5624951361286225  0.0695886186395289  0.1460819042706984
  0.1436054555247947  0.9304113724785944  0.8539180752417113
  0.3192372277077573  0.9301396378322556  0.8537808402962993
  0.4959170565292005  0.9300752205658424  0.8539502327484652
  0.6741376289052002  0.9289356914301266  0.8546575993127138
  0.0548916430315722  0.9290171331053143  0.6414963200194517
  0.2309829394078392  0.9301630785563131  0.6458193271029734
  0.4074934190096659  0.9301391574710548  0.6461921444910864
  0.5840644506198178  0.9307742665267085  0.6473925225137307
  0.1220361223416002  0.0692257245914150  0.3526074775121261
  0.2986071632977481  0.0698608336470689  0.3538078555347703
  0.4751176802639904  0.0698369125618101  0.3541806729228831
  0.6512089859862602  0.0709828580128088  0.3585036800064051
  0.1436054555247947  0.5695886274771388  0.8539180752417113
  0.3192372277077573  0.5698603621234776  0.8537808402962993
  0.4959170565292005  0.5699247793898908  0.8539502327484652
  0.6741376289052002  0.5710643085256066  0.8546575993127138
  0.0319629440562177  0.4289356914448844  0.1453423801996958
  0.2101835257586240  0.4300752205806007  0.1460497467639443
  0.3868633732720662  0.4301396378470134  0.1462191392161102
  0.5624951361286225  0.4304113724933523  0.1460819042706984
  0.1220361223416002  0.4307742665414665  0.3526074775121261
  0.2986071632977481  0.4301391574858126  0.3538078555347703
  0.4751176802639904  0.4301630785710714  0.3541806729228831
  0.6512089859862602  0.4290171331200727  0.3585036800064051
  0.0548916430315722  0.5709828668504189  0.6414963200194517
  0.2309829394078392  0.5698369213994201  0.6458193271029734
  0.4074934190096659  0.5698608424846784  0.6461921444910864
  0.5840644506198178  0.5692257334290247  0.6473925225137307
  0.0131928721544677  0.7500000176088264  0.6176286749122445
  0.1913404707491135  0.7500000176088264  0.5916656650301205
  0.3678842692682049  0.7500000176088264  0.5916276064901475
  0.5445880176258080  0.7500000176088264  0.5923291213371907
  0.1615126020460219  0.2500000000663931  0.4076708786024772
  0.3382163317116185  0.2500000000663931  0.4083723934495200
  0.5147601115583006  0.2500000000663931  0.4083343349095468
  0.6929077440297479  0.2500000000663931  0.3823713250274232
  0.0723026382741096  0.2500000000663931  0.0822786836723808
  0.2498742138790295  0.2500000000663931  0.0920233043743424
  0.4264711852284333  0.2500000000663931  0.0917650209901040
  0.6018010683404339  0.2500000000663931  0.0912871054804909
  0.1042995139669873  0.7500000176088264  0.9087128739457230
  0.2796293970593910  0.7500000176088264  0.9082349584361095
  0.4562264058123896  0.7500000176088264  0.9079766750518714
  0.6337979486965108  0.7500000176088264  0.9177212957538330
  0.0322321646879074  0.2500000000663931  0.9622870122156746
  0.2110265637664535  0.2500000000663931  0.9639958147793356
  0.3875661099623238  0.2500000000663931  0.9640618176996377
  0.5638215055744860  0.2500000000663931  0.9630901407383704
  0.1422791047709306  0.7500000176088264  0.0369098746294748
  0.3185344910174996  0.7500000176088264  0.0359381976682080
  0.4950740372329665  0.7500000176088264  0.0360042005885098
  0.6738684619983221  0.7500000176088264  0.0377130031521707
  0.0457712392032804  0.7500000176088264  0.4611101957020917
  0.2302244980576945  0.7500000176088264  0.4637605452578833
  0.4067850463253004  0.7500000176088264  0.4640412866291767
  0.5834021941717226  0.7500000176088264  0.4648922420700614
  0.1226983974620977  0.2500000000663931  0.5351076757296083
  0.2993155546741197  0.2500000000663931  0.5359586311704930
  0.4758761029221289  0.2500000000663931  0.5362393725417862
  0.6603293337581306  0.2500000000663931  0.5388897220975781
 
  0.00000000E+00  0.00000000E+00  0.00000000E+00
  0.00000000E+00  0.00000000E+00  0.00000000E+00
  0.00000000E+00  0.00000000E+00  0.00000000E+00
  0.00000000E+00  0.00000000E+00  0.00000000E+00
  0.00000000E+00  0.00000000E+00  0.00000000E+00
  0.00000000E+00  0.00000000E+00  0.00000000E+00
  0.00000000E+00  0.00000000E+00  0.00000000E+00
  0.00000000E+00  0.00000000E+00  0.00000000E+00
  0.00000000E+00  0.00000000E+00  0.00000000E+00
  0.00000000E+00  0.00000000E+00  0.00000000E+00
  0.00000000E+00  0.00000000E+00  0.00000000E+00
  0.00000000E+00  0.00000000E+00  0.00000000E+00
  0.00000000E+00  0.00000000E+00  0.00000000E+00
  0.00000000E+00  0.00000000E+00  0.00000000E+00
  0.00000000E+00  0.00000000E+00  0.00000000E+00
  0.00000000E+00  0.00000000E+00  0.00000000E+00
  0.00000000E+00  0.00000000E+00  0.00000000E+00
  0.00000000E+00  0.00000000E+00  0.00000000E+00
  0.00000000E+00  0.00000000E+00  0.00000000E+00
  0.00000000E+00  0.00000000E+00  0.00000000E+00
  0.00000000E+00  0.00000000E+00  0.00000000E+00
  0.00000000E+00  0.00000000E+00  0.00000000E+00
  0.00000000E+00  0.00000000E+00  0.00000000E+00
  0.00000000E+00  0.00000000E+00  0.00000000E+00
  0.00000000E+00  0.00000000E+00  0.00000000E+00
  0.00000000E+00  0.00000000E+00  0.00000000E+00
  0.00000000E+00  0.00000000E+00  0.00000000E+00
  0.00000000E+00  0.00000000E+00  0.00000000E+00
  0.00000000E+00  0.00000000E+00  0.00000000E+00
  0.00000000E+00  0.00000000E+00  0.00000000E+00
  0.00000000E+00  0.00000000E+00  0.00000000E+00
  0.00000000E+00  0.00000000E+00  0.00000000E+00
  0.00000000E+00  0.00000000E+00  0.00000000E+00
  0.00000000E+00  0.00000000E+00  0.00000000E+00
  0.00000000E+00  0.00000000E+00  0.00000000E+00
  0.00000000E+00  0.00000000E+00  0.00000000E+00
  0.00000000E+00  0.00000000E+00  0.00000000E+00
  0.00000000E+00  0.00000000E+00  0.00000000E+00
  0.00000000E+00  0.00000000E+00  0.00000000E+00
  0.00000000E+00  0.00000000E+00  0.00000000E+00
  0.00000000E+00  0.00000000E+00  0.00000000E+00
  0.00000000E+00  0.00000000E+00  0.00000000E+00
  0.00000000E+00  0.00000000E+00  0.00000000E+00
  0.00000000E+00  0.00000000E+00  0.00000000E+00
  0.00000000E+00  0.00000000E+00  0.00000000E+00
  0.00000000E+00  0.00000000E+00  0.00000000E+00
  0.00000000E+00  0.00000000E+00  0.00000000E+00
  0.00000000E+00  0.00000000E+00  0.00000000E+00
  0.00000000E+00  0.00000000E+00  0.00000000E+00
  0.00000000E+00  0.00000000E+00  0.00000000E+00
  0.00000000E+00  0.00000000E+00  0.00000000E+00
  0.00000000E+00  0.00000000E+00  0.00000000E+00
  0.00000000E+00  0.00000000E+00  0.00000000E+00
  0.00000000E+00  0.00000000E+00  0.00000000E+00
  0.00000000E+00  0.00000000E+00  0.00000000E+00
  0.00000000E+00  0.00000000E+00  0.00000000E+00
  0.00000000E+00  0.00000000E+00  0.00000000E+00
  0.00000000E+00  0.00000000E+00  0.00000000E+00
  0.00000000E+00  0.00000000E+00  0.00000000E+00
  0.00000000E+00  0.00000000E+00  0.00000000E+00
  0.00000000E+00  0.00000000E+00  0.00000000E+00
  0.00000000E+00  0.00000000E+00  0.00000000E+00
  0.00000000E+00  0.00000000E+00  0.00000000E+00
  0.00000000E+00  0.00000000E+00  0.00000000E+00
  0.00000000E+00  0.00000000E+00  0.00000000E+00
  0.00000000E+00  0.00000000E+00  0.00000000E+00
  0.00000000E+00  0.00000000E+00  0.00000000E+00
  0.00000000E+00  0.00000000E+00  0.00000000E+00
  0.00000000E+00  0.00000000E+00  0.00000000E+00
  0.00000000E+00  0.00000000E+00  0.00000000E+00
  0.00000000E+00  0.00000000E+00  0.00000000E+00
  0.00000000E+00  0.00000000E+00  0.00000000E+00
  0.00000000E+00  0.00000000E+00  0.00000000E+00
  0.00000000E+00  0.00000000E+00  0.00000000E+00
  0.00000000E+00  0.00000000E+00  0.00000000E+00
  0.00000000E+00  0.00000000E+00  0.00000000E+00
  0.00000000E+00  0.00000000E+00  0.00000000E+00
  0.00000000E+00  0.00000000E+00  0.00000000E+00
  0.00000000E+00  0.00000000E+00  0.00000000E+00
  0.00000000E+00  0.00000000E+00  0.00000000E+00
  0.00000000E+00  0.00000000E+00  0.00000000E+00
  0.00000000E+00  0.00000000E+00  0.00000000E+00
  0.00000000E+00  0.00000000E+00  0.00000000E+00
  0.00000000E+00  0.00000000E+00  0.00000000E+00
  0.00000000E+00  0.00000000E+00  0.00000000E+00
  0.00000000E+00  0.00000000E+00  0.00000000E+00
  0.00000000E+00  0.00000000E+00  0.00000000E+00
  0.00000000E+00  0.00000000E+00  0.00000000E+00
  0.00000000E+00  0.00000000E+00  0.00000000E+00
  0.00000000E+00  0.00000000E+00  0.00000000E+00
  0.00000000E+00  0.00000000E+00  0.00000000E+00
  0.00000000E+00  0.00000000E+00  0.00000000E+00
  0.00000000E+00  0.00000000E+00  0.00000000E+00
  0.00000000E+00  0.00000000E+00  0.00000000E+00
  0.00000000E+00  0.00000000E+00  0.00000000E+00
  0.00000000E+00  0.00000000E+00  0.00000000E+00
