ba8 si16                                
   1.00000000000000     
    64.0549167531697918    0.0000000000000000    0.0000000000000000
     0.0000000000000000    6.6933623036827754    0.0000000000000000
     0.0000000000000000    0.0000000000000000   11.4592904917517142
   Ba   Si
    44    88
Direct
  0.0051334100913388  0.2500000000663931  0.7008714993882806
  0.1419746173248849  0.2500000000663931  0.6904046414212389
  0.2814096463820849  0.2500000000663931  0.6913070702901470
  0.4209522802891187  0.2500000000663931  0.6914891174510488
  0.5605144678230011  0.2500000000663931  0.6911181122062388
  0.7016547993806822  0.2500000000663931  0.6927408435842916
  0.1373470994557367  0.7500000176088264  0.3081918552845498
  0.2769109980315420  0.7500000176088264  0.3087021754032763
  0.4164957094819274  0.7500000176088264  0.3088579489169453
  0.5560623452570139  0.7500000176088264  0.3087962959382028
  0.6952829163971742  0.7500000176088264  0.3083826799579626
  0.0659746519530931  0.7500000176088264  0.1927407818586268
  0.2071150573736173  0.7500000176088264  0.1911180504805742
  0.3466772153654559  0.7500000176088264  0.1914890557253843
  0.4862198492724968  0.7500000176088264  0.1913070085644823
  0.6256548635509265  0.7500000176088264  0.1904045796955744
  0.7624960712492102  0.7500000176088264  0.2008714376626160
  0.0723465644786374  0.2500000000663931  0.8083827210839843
  0.2115671503975611  0.2500000000663931  0.8087963370642247
  0.3511337566151139  0.2500000000663931  0.8088579900429669
  0.4907184385234629  0.2500000000663931  0.8087022165292979
  0.6302823518625484  0.2500000000663931  0.8081918964105715
  0.0299277805359833  0.7500000176088264  0.9121113428685512
  0.1622943733724024  0.7500000176088264  0.9057799944715357
  0.3016048298100626  0.7500000176088264  0.9060204463490701
  0.4410760610815481  0.7500000176088264  0.9059699085840550
  0.5806155047374244  0.7500000176088264  0.9050396683069171
  0.7193457329494964  0.7500000176088264  0.8955980447367544
  0.1165959155620958  0.2500000000663931  0.0931099189469934
  0.2566814383150834  0.2500000000663931  0.0941026582292294
  0.3962847293733989  0.2500000000663931  0.0939852802195192
  0.5358393033908512  0.2500000000663931  0.0939790584653001
  0.6751079811196348  0.2500000000663931  0.0952387777128529
  0.0482837036055085  0.2500000000663931  0.3955981269500096
  0.1870139909171573  0.2500000000663931  0.4050397505201718
  0.3265534050309901  0.2500000000663931  0.4059699907973099
  0.4660246658445120  0.2500000000663931  0.4060205285623248
  0.6053351222821722  0.2500000000663931  0.4057800766847906
  0.7377016560190217  0.2500000000663931  0.4121114250818061
  0.0925214554353702  0.7500000176088264  0.5952387572123310
  0.2317901479429169  0.7500000176088264  0.5939790379647782
  0.3713447367236495  0.7500000176088264  0.5939852597189970
  0.5109480573240014  0.7500000176088264  0.5941026377287069
  0.6510335727031042  0.7500000176088264  0.5931098984464716
  0.0253104024821975  0.0713588263832141  0.1455852953427083
  0.1662132567919032  0.0701295643171211  0.1458617634801910
  0.3059262422091067  0.0701459827775322  0.1465093685432938
  0.4454934816747167  0.0700890013136375  0.1463055715380758
  0.5850172495809278  0.0700342721752635  0.1454053439183788
  0.7242589254244030  0.0712676058991604  0.1419961477897874
  0.1134907434082451  0.9302138050925780  0.8541328979455486
  0.2523760311746251  0.9298712999102479  0.8536600489846400
  0.3918738852493989  0.9298712903068973  0.8537494575475075
  0.5314276244628739  0.9298860883146035  0.8537305189618313
  0.6711389432798022  0.9306080769845663  0.8530701220344019
  0.0433705037412204  0.9287323852189632  0.6419961683161660
  0.1826122460736542  0.9299657189428601  0.6454053644447578
  0.3221359844223317  0.9299109898044861  0.6463055920644546
  0.4617032534454679  0.9298540083405912  0.6465093890696728
  0.6014162536259444  0.9298704268010023  0.6458617840065698
  0.7423190414621958  0.9286411647349090  0.6455853158690872
  0.0964905006645846  0.0693919141335571  0.3530701220214701
  0.2362018268708941  0.0701139028035202  0.3537305189488994
  0.3757555808631394  0.0701287008112262  0.3537494575345761
  0.5152534644799498  0.0701286912078756  0.3536600489717079
  0.6541387374675738  0.0697861860255454  0.3541328979326170
  0.1134907434082451  0.5697861948631552  0.8541328979455486
  0.2523760311746251  0.5701287000454853  0.8536600489846400
  0.3918738852493989  0.5701287096488359  0.8537494575475075
  0.5314276244628739  0.5701139116411297  0.8537305189618313
  0.6711389432798022  0.5693919229711669  0.8530701220344019
  0.0253104024821975  0.4286411647496674  0.1455852953427083
  0.1662132567919032  0.4298704268157604  0.1458617634801910
  0.3059262422091067  0.4298540083553491  0.1465093685432938
  0.4454934816747167  0.4299109898192437  0.1463055715380758
  0.5850172495809278  0.4299657189576179  0.1454053439183788
  0.7242589254244030  0.4287323852337209  0.1419961477897874
  0.0964905006645846  0.4306080769993242  0.3530701220214701
  0.2362018268708941  0.4298860883293612  0.3537305189488994
  0.3757555808631394  0.4298712903216552  0.3537494575345761
  0.5152534644799498  0.4298712999250057  0.3536600489717079
  0.6541387374675738  0.4302138051073360  0.3541328979326170
  0.0433705037412204  0.5712676147367700  0.6419961683161660
  0.1826122460736542  0.5700342810128731  0.6454053644447578
  0.3221359844223317  0.5700890101512471  0.6463055920644546
  0.4617032534454679  0.5701459916151420  0.6465093890696728
  0.6014162536259444  0.5701295731547309  0.6458617840065698
  0.7423190414621958  0.5713588352208242  0.6455853158690872
  0.0103825702036451  0.7500000176088264  0.6177811863023615
  0.1512623723484021  0.7500000176088264  0.5912331425698349
  0.2907724051685813  0.7500000176088264  0.5918151064746655
  0.4303502490504406  0.7500000176088264  0.5919580430570177
  0.5700365253074419  0.7500000176088264  0.5915863016818951
  0.7103810855127151  0.7500000176088264  0.5825500678012314
  0.1277342904124552  0.2500000000663931  0.4080241441677065
  0.2675655074752465  0.2500000000663931  0.4083422502410448
  0.4071104355039873  0.2500000000663931  0.4083035698110198
  0.5466026883647233  0.2500000000663931  0.4080911056195812
  0.6852497623255546  0.2500000000663931  0.4088529446049370
  0.0572483658210600  0.2500000000663931  0.0825500061617557
  0.1975929407896063  0.2500000000663931  0.0915862400424191
  0.3372792170620976  0.2500000000663931  0.0919579814175421
  0.4768570313864237  0.2500000000663931  0.0918150448351898
  0.6163671085274092  0.2500000000663931  0.0912330809303595
  0.7572468488151295  0.2500000000663931  0.1177811246628859
  0.0823797185502570  0.7500000176088264  0.9088529857309585
  0.2210267777478148  0.7500000176088264  0.9080911467456031
  0.3605190601505944  0.7500000176088264  0.9083036109370413
  0.5000639290797584  0.7500000176088264  0.9083422913670666
  0.6398952200053998  0.7500000176088264  0.9080241852937280
  0.0255032104246402  0.2500000000663931  0.9627362463697501
  0.1668032573631378  0.2500000000663931  0.9639817199879557
  0.3064840585702850  0.2500000000663931  0.9645461686442235
  0.4460612849323315  0.2500000000663931  0.9643579583902295
  0.5855883231707039  0.2500000000663931  0.9635148252272122
  0.7314008400691601  0.2500000000663931  0.9616809664040394
  0.1124402559956672  0.7500000176088264  0.0368532827935013
  0.2518146232796717  0.7500000176088264  0.0356144470903518
  0.3913281878346812  0.7500000176088264  0.0357489304061080
  0.5308830316665953  0.7500000176088264  0.0357340504724806
  0.6706212965661145  0.7500000176088264  0.0352718984077421
  0.0362286038752266  0.7500000176088264  0.4616808842511166
  0.1820411872626411  0.7500000176088264  0.4635147430742899
  0.3215681811647098  0.7500000176088264  0.4643578762373070
  0.4611454370842967  0.7500000176088264  0.4645460864913006
  0.6008262382914368  0.7500000176088264  0.4639816378350334
  0.7421262759970851  0.7500000176088264  0.4627361642168273
  0.0970081916835889  0.2500000000663931  0.5352718829924890
  0.2367464492092163  0.2500000000663931  0.5357340350572276
  0.3763013078044036  0.2500000000663931  0.5357489149908552
  0.5158148428328662  0.2500000000663931  0.5356144316750985
  0.6551892544221878  0.2500000000663931  0.5368532673782479
 
  0.00000000E+00  0.00000000E+00  0.00000000E+00
  0.00000000E+00  0.00000000E+00  0.00000000E+00
  0.00000000E+00  0.00000000E+00  0.00000000E+00
  0.00000000E+00  0.00000000E+00  0.00000000E+00
  0.00000000E+00  0.00000000E+00  0.00000000E+00
  0.00000000E+00  0.00000000E+00  0.00000000E+00
  0.00000000E+00  0.00000000E+00  0.00000000E+00
  0.00000000E+00  0.00000000E+00  0.00000000E+00
  0.00000000E+00  0.00000000E+00  0.00000000E+00
  0.00000000E+00  0.00000000E+00  0.00000000E+00
  0.00000000E+00  0.00000000E+00  0.00000000E+00
  0.00000000E+00  0.00000000E+00  0.00000000E+00
  0.00000000E+00  0.00000000E+00  0.00000000E+00
  0.00000000E+00  0.00000000E+00  0.00000000E+00
  0.00000000E+00  0.00000000E+00  0.00000000E+00
  0.00000000E+00  0.00000000E+00  0.00000000E+00
  0.00000000E+00  0.00000000E+00  0.00000000E+00
  0.00000000E+00  0.00000000E+00  0.00000000E+00
  0.00000000E+00  0.00000000E+00  0.00000000E+00
  0.00000000E+00  0.00000000E+00  0.00000000E+00
  0.00000000E+00  0.00000000E+00  0.00000000E+00
  0.00000000E+00  0.00000000E+00  0.00000000E+00
  0.00000000E+00  0.00000000E+00  0.00000000E+00
  0.00000000E+00  0.00000000E+00  0.00000000E+00
  0.00000000E+00  0.00000000E+00  0.00000000E+00
  0.00000000E+00  0.00000000E+00  0.00000000E+00
  0.00000000E+00  0.00000000E+00  0.00000000E+00
  0.00000000E+00  0.00000000E+00  0.00000000E+00
  0.00000000E+00  0.00000000E+00  0.00000000E+00
  0.00000000E+00  0.00000000E+00  0.00000000E+00
  0.00000000E+00  0.00000000E+00  0.00000000E+00
  0.00000000E+00  0.00000000E+00  0.00000000E+00
  0.00000000E+00  0.00000000E+00  0.00000000E+00
  0.00000000E+00  0.00000000E+00  0.00000000E+00
  0.00000000E+00  0.00000000E+00  0.00000000E+00
  0.00000000E+00  0.00000000E+00  0.00000000E+00
  0.00000000E+00  0.00000000E+00  0.00000000E+00
  0.00000000E+00  0.00000000E+00  0.00000000E+00
  0.00000000E+00  0.00000000E+00  0.00000000E+00
  0.00000000E+00  0.00000000E+00  0.00000000E+00
  0.00000000E+00  0.00000000E+00  0.00000000E+00
  0.00000000E+00  0.00000000E+00  0.00000000E+00
  0.00000000E+00  0.00000000E+00  0.00000000E+00
  0.00000000E+00  0.00000000E+00  0.00000000E+00
  0.00000000E+00  0.00000000E+00  0.00000000E+00
  0.00000000E+00  0.00000000E+00  0.00000000E+00
  0.00000000E+00  0.00000000E+00  0.00000000E+00
  0.00000000E+00  0.00000000E+00  0.00000000E+00
  0.00000000E+00  0.00000000E+00  0.00000000E+00
  0.00000000E+00  0.00000000E+00  0.00000000E+00
  0.00000000E+00  0.00000000E+00  0.00000000E+00
  0.00000000E+00  0.00000000E+00  0.00000000E+00
  0.00000000E+00  0.00000000E+00  0.00000000E+00
  0.00000000E+00  0.00000000E+00  0.00000000E+00
  0.00000000E+00  0.00000000E+00  0.00000000E+00
  0.00000000E+00  0.00000000E+00  0.00000000E+00
  0.00000000E+00  0.00000000E+00  0.00000000E+00
  0.00000000E+00  0.00000000E+00  0.00000000E+00
  0.00000000E+00  0.00000000E+00  0.00000000E+00
  0.00000000E+00  0.00000000E+00  0.00000000E+00
  0.00000000E+00  0.00000000E+00  0.00000000E+00
  0.00000000E+00  0.00000000E+00  0.00000000E+00
  0.00000000E+00  0.00000000E+00  0.00000000E+00
  0.00000000E+00  0.00000000E+00  0.00000000E+00
  0.00000000E+00  0.00000000E+00  0.00000000E+00
  0.00000000E+00  0.00000000E+00  0.00000000E+00
  0.00000000E+00  0.00000000E+00  0.00000000E+00
  0.00000000E+00  0.00000000E+00  0.00000000E+00
  0.00000000E+00  0.00000000E+00  0.00000000E+00
  0.00000000E+00  0.00000000E+00  0.00000000E+00
  0.00000000E+00  0.00000000E+00  0.00000000E+00
  0.00000000E+00  0.00000000E+00  0.00000000E+00
  0.00000000E+00  0.00000000E+00  0.00000000E+00
  0.00000000E+00  0.00000000E+00  0.00000000E+00
  0.00000000E+00  0.00000000E+00  0.00000000E+00
  0.00000000E+00  0.00000000E+00  0.00000000E+00
  0.00000000E+00  0.00000000E+00  0.00000000E+00
  0.00000000E+00  0.00000000E+00  0.00000000E+00
  0.00000000E+00  0.00000000E+00  0.00000000E+00
  0.00000000E+00  0.00000000E+00  0.00000000E+00
  0.00000000E+00  0.00000000E+00  0.00000000E+00
  0.00000000E+00  0.00000000E+00  0.00000000E+00
  0.00000000E+00  0.00000000E+00  0.00000000E+00
  0.00000000E+00  0.00000000E+00  0.00000000E+00
  0.00000000E+00  0.00000000E+00  0.00000000E+00
  0.00000000E+00  0.00000000E+00  0.00000000E+00
  0.00000000E+00  0.00000000E+00  0.00000000E+00
  0.00000000E+00  0.00000000E+00  0.00000000E+00
  0.00000000E+00  0.00000000E+00  0.00000000E+00
  0.00000000E+00  0.00000000E+00  0.00000000E+00
  0.00000000E+00  0.00000000E+00  0.00000000E+00
  0.00000000E+00  0.00000000E+00  0.00000000E+00
  0.00000000E+00  0.00000000E+00  0.00000000E+00
  0.00000000E+00  0.00000000E+00  0.00000000E+00
  0.00000000E+00  0.00000000E+00  0.00000000E+00
  0.00000000E+00  0.00000000E+00  0.00000000E+00
  0.00000000E+00  0.00000000E+00  0.00000000E+00
  0.00000000E+00  0.00000000E+00  0.00000000E+00
  0.00000000E+00  0.00000000E+00  0.00000000E+00
  0.00000000E+00  0.00000000E+00  0.00000000E+00
  0.00000000E+00  0.00000000E+00  0.00000000E+00
  0.00000000E+00  0.00000000E+00  0.00000000E+00
  0.00000000E+00  0.00000000E+00  0.00000000E+00
  0.00000000E+00  0.00000000E+00  0.00000000E+00
  0.00000000E+00  0.00000000E+00  0.00000000E+00
  0.00000000E+00  0.00000000E+00  0.00000000E+00
  0.00000000E+00  0.00000000E+00  0.00000000E+00
  0.00000000E+00  0.00000000E+00  0.00000000E+00
  0.00000000E+00  0.00000000E+00  0.00000000E+00
  0.00000000E+00  0.00000000E+00  0.00000000E+00
  0.00000000E+00  0.00000000E+00  0.00000000E+00
  0.00000000E+00  0.00000000E+00  0.00000000E+00
  0.00000000E+00  0.00000000E+00  0.00000000E+00
  0.00000000E+00  0.00000000E+00  0.00000000E+00
  0.00000000E+00  0.00000000E+00  0.00000000E+00
  0.00000000E+00  0.00000000E+00  0.00000000E+00
  0.00000000E+00  0.00000000E+00  0.00000000E+00
  0.00000000E+00  0.00000000E+00  0.00000000E+00
  0.00000000E+00  0.00000000E+00  0.00000000E+00
  0.00000000E+00  0.00000000E+00  0.00000000E+00
  0.00000000E+00  0.00000000E+00  0.00000000E+00
  0.00000000E+00  0.00000000E+00  0.00000000E+00
  0.00000000E+00  0.00000000E+00  0.00000000E+00
  0.00000000E+00  0.00000000E+00  0.00000000E+00
  0.00000000E+00  0.00000000E+00  0.00000000E+00
  0.00000000E+00  0.00000000E+00  0.00000000E+00
  0.00000000E+00  0.00000000E+00  0.00000000E+00
  0.00000000E+00  0.00000000E+00  0.00000000E+00
  0.00000000E+00  0.00000000E+00  0.00000000E+00
  0.00000000E+00  0.00000000E+00  0.00000000E+00
  0.00000000E+00  0.00000000E+00  0.00000000E+00
  0.00000000E+00  0.00000000E+00  0.00000000E+00
