ba8 si16                                
   1.00000000000000     
    24.0094680786000012    0.0000000000000000    0.0000000000000000
     0.0000000000000000    6.7778496741999996    0.0000000000000000
     0.0000000000000000    0.0000000000000000   11.6021432877000006
   Ba   Si
     8    16
Selective dynamics
Direct
  0.0056936146836932  0.2500000000663931  0.7020875442080030   F   T   T
  0.3487277360993559  0.7500000176088264  0.2979124558178535   F   T   T
  0.1819296202106742  0.7500000176088264  0.1889390695062163   F   T   T
  0.1724917293228714  0.2500000000663931  0.8110609099199975   F   T   T
  0.0597801408303269  0.7500000176088264  0.9281284109369526   F   T   T
  0.2946412087448635  0.2500000000663931  0.0718715684892612   F   T   T
  0.1278430928145298  0.2500000000663931  0.4068429486784988   F   T   T
  0.2265782567190158  0.7500000176088264  0.5931570924604475   F   T   T
  0.0728991332615152  0.0728844501325219  0.1582805624205700   F   T   T
  0.2815222163136823  0.9271155409856016  0.8417194170918394   F   T   T
  0.1147241003833415  0.9263340695829793  0.6511963561415612   F   T   T
  0.2396972491502041  0.0736659215351439  0.3488036438842952   F   T   T
  0.2815222163136823  0.5728844589701316  0.8417194170918394   F   T   T
  0.0728991332615152  0.4271155410003595  0.1582805624205700   F   T   T
  0.2396972491502041  0.4263340695977376  0.3488036438842952   F   T   T
  0.1147241003833415  0.5736659303727539  0.6511963561415612   F   T   T
  0.0311098080788312  0.7500000176088264  0.5908014333647431   F   T   T
  0.3233115340409753  0.2500000000663931  0.4091985665749240   F   T   T
  0.1565134280650469  0.2500000000663931  0.0970110807846836   F   T   T
  0.1979079314229040  0.7500000176088264  0.9029888986415301   F   T   T
  0.0741839757202953  0.2500000000663931  0.9786062109195406   F   T   T
  0.2802373688985256  0.7500000176088264  0.0213938044483050   F   T   T
  0.1134392529681918  0.7500000176088264  0.4689519371215751   F   T   T
  0.2409820965653537  0.2500000000663931  0.5310479806780949   F   T   T
 
  0.00000000E+00  0.00000000E+00  0.00000000E+00
  0.00000000E+00  0.00000000E+00  0.00000000E+00
  0.00000000E+00  0.00000000E+00  0.00000000E+00
  0.00000000E+00  0.00000000E+00  0.00000000E+00
  0.00000000E+00  0.00000000E+00  0.00000000E+00
  0.00000000E+00  0.00000000E+00  0.00000000E+00
  0.00000000E+00  0.00000000E+00  0.00000000E+00
  0.00000000E+00  0.00000000E+00  0.00000000E+00
  0.00000000E+00  0.00000000E+00  0.00000000E+00
  0.00000000E+00  0.00000000E+00  0.00000000E+00
  0.00000000E+00  0.00000000E+00  0.00000000E+00
  0.00000000E+00  0.00000000E+00  0.00000000E+00
  0.00000000E+00  0.00000000E+00  0.00000000E+00
  0.00000000E+00  0.00000000E+00  0.00000000E+00
  0.00000000E+00  0.00000000E+00  0.00000000E+00
  0.00000000E+00  0.00000000E+00  0.00000000E+00
  0.00000000E+00  0.00000000E+00  0.00000000E+00
  0.00000000E+00  0.00000000E+00  0.00000000E+00
  0.00000000E+00  0.00000000E+00  0.00000000E+00
  0.00000000E+00  0.00000000E+00  0.00000000E+00
  0.00000000E+00  0.00000000E+00  0.00000000E+00
  0.00000000E+00  0.00000000E+00  0.00000000E+00
  0.00000000E+00  0.00000000E+00  0.00000000E+00
  0.00000000E+00  0.00000000E+00  0.00000000E+00
