ba8 si16                                
   1.00000000000000     
    24.0094680786000012    0.0000000000000000    0.0000000000000000
     0.0000000000000000    6.7778496741999996    0.0000000000000000
     0.0000000000000000    0.0000000000000000   11.6021432877000006
   Ba   Si
     8    16
Selective dynamics
Direct
  0.0056936146836932  0.2500000000663931  0.7066012793941723   F   T   T
  0.3612228067530623  0.7500000176088264  0.2933987206316844   F   T   T
  0.1819296202106742  0.7500000176088264  0.1882309325466912   F   T   T
  0.1849867999765777  0.2500000000663931  0.8117690468795227   F   T   T
  0.0597801408303269  0.7500000176088264  0.9224275931225796   F   T   T
  0.3071362793985699  0.2500000000663931  0.0775723863036344   F   T   T
  0.1278430928145298  0.2500000000663931  0.4004851726008281   F   T   T
  0.2390733273727221  0.7500000176088264  0.5995148685381184   F   T   T
  0.0728991332615152  0.0728655942719967  0.1494779104273383   F   T   T
  0.2940172869673816  0.9271343968461270  0.8505220690850717   F   T   T
  0.1147241003833415  0.9268901970175961  0.6563692484360421   F   T   T
  0.2521923198039104  0.0731097941005272  0.3436307515898144   F   T   T
  0.2940172869673816  0.5728656031096062  0.8505220690850717   F   T   T
  0.0728991332615152  0.4271343968608849  0.1494779104273383   F   T   T
  0.2521923198039104  0.4268901970323543  0.3436307515898144   F   T   T
  0.1147241003833415  0.5731098029381371  0.6563692484360421   F   T   T
  0.0311098080788312  0.7500000176088264  0.5972580438949001   F   T   T
  0.3358066046946817  0.2500000000663931  0.4027419560447680   F   T   T
  0.1565134280650469  0.2500000000663931  0.0895481631612610   F   T   T
  0.2104030020766103  0.7500000176088264  0.9104518162649528   F   T   T
  0.0741839757202953  0.2500000000663931  0.9687092306178764   F   T   T
  0.2927324395522319  0.7500000176088264  0.0312907847499693   F   T   T
  0.1134392529681918  0.7500000176088264  0.4748494177499752   F   T   T
  0.2534771672190601  0.2500000000663931  0.5251505000496942   F   T   T
 
  0.00000000E+00  0.00000000E+00  0.00000000E+00
  0.00000000E+00  0.00000000E+00  0.00000000E+00
  0.00000000E+00  0.00000000E+00  0.00000000E+00
  0.00000000E+00  0.00000000E+00  0.00000000E+00
  0.00000000E+00  0.00000000E+00  0.00000000E+00
  0.00000000E+00  0.00000000E+00  0.00000000E+00
  0.00000000E+00  0.00000000E+00  0.00000000E+00
  0.00000000E+00  0.00000000E+00  0.00000000E+00
  0.00000000E+00  0.00000000E+00  0.00000000E+00
  0.00000000E+00  0.00000000E+00  0.00000000E+00
  0.00000000E+00  0.00000000E+00  0.00000000E+00
  0.00000000E+00  0.00000000E+00  0.00000000E+00
  0.00000000E+00  0.00000000E+00  0.00000000E+00
  0.00000000E+00  0.00000000E+00  0.00000000E+00
  0.00000000E+00  0.00000000E+00  0.00000000E+00
  0.00000000E+00  0.00000000E+00  0.00000000E+00
  0.00000000E+00  0.00000000E+00  0.00000000E+00
  0.00000000E+00  0.00000000E+00  0.00000000E+00
  0.00000000E+00  0.00000000E+00  0.00000000E+00
  0.00000000E+00  0.00000000E+00  0.00000000E+00
  0.00000000E+00  0.00000000E+00  0.00000000E+00
  0.00000000E+00  0.00000000E+00  0.00000000E+00
  0.00000000E+00  0.00000000E+00  0.00000000E+00
  0.00000000E+00  0.00000000E+00  0.00000000E+00
