ba8 si16                                
   1.00000000000000     
    24.0094680786000012    0.0000000000000000    0.0000000000000000
     0.0000000000000000    6.7778496741999996    0.0000000000000000
     0.0000000000000000    0.0000000000000000   11.6021432877000006
   Ba   Si
     8    16
Selective dynamics
Direct
  0.0056936146836932  0.2500000000663931  0.7063918028815148   F   T   T
  0.3653878303043001  0.7500000176088264  0.2936081971443416   F   T   T
  0.1819296202106742  0.7500000176088264  0.1880395503590626   F   T   T
  0.1891518235278156  0.2500000000663931  0.8119604290671510   F   T   T
  0.0597801408303269  0.7500000176088264  0.9212131845242436   F   T   T
  0.3113013029498077  0.2500000000663931  0.0787867949019700   F   T   T
  0.1278430928145298  0.2500000000663931  0.3988946965846598   F   T   T
  0.2432383509239529  0.7500000176088264  0.6011053445542862   F   T   T
  0.0728991332615152  0.0729414568093218  0.1473671005759180   F   T   T
  0.2981823105186194  0.9270585343088016  0.8526328789364918   F   T   T
  0.1147241003833415  0.9271765060416339  0.6579338097538387   F   T   T
  0.2563573433551412  0.0728234850764894  0.3420661902720175   F   T   T
  0.2981823105186194  0.5729414656469316  0.8526328789364918   F   T   T
  0.0728991332615152  0.4270585343235597  0.1473671005759180   F   T   T
  0.2563573433551412  0.4271765060563920  0.3420661902720175   F   T   T
  0.1147241003833415  0.5728234939140993  0.6579338097538387   F   T   T
  0.0311098080788312  0.7500000176088264  0.5987741711078762   F   T   T
  0.3399716282459195  0.2500000000663931  0.4012258288317910   F   T   T
  0.1565134280650469  0.2500000000663931  0.0871330997399733   F   T   T
  0.2145680256278482  0.7500000176088264  0.9128668796862406   F   T   T
  0.0741839757202953  0.2500000000663931  0.9661978527312520   F   T   T
  0.2968974631034698  0.7500000176088264  0.0338021626365933   F   T   T
  0.1134392529681918  0.7500000176088264  0.4762931491150074   F   T   T
  0.2576421907702979  0.2500000000663931  0.5237067686846626   F   T   T
 
  0.00000000E+00  0.00000000E+00  0.00000000E+00
  0.00000000E+00  0.00000000E+00  0.00000000E+00
  0.00000000E+00  0.00000000E+00  0.00000000E+00
  0.00000000E+00  0.00000000E+00  0.00000000E+00
  0.00000000E+00  0.00000000E+00  0.00000000E+00
  0.00000000E+00  0.00000000E+00  0.00000000E+00
  0.00000000E+00  0.00000000E+00  0.00000000E+00
  0.00000000E+00  0.00000000E+00  0.00000000E+00
  0.00000000E+00  0.00000000E+00  0.00000000E+00
  0.00000000E+00  0.00000000E+00  0.00000000E+00
  0.00000000E+00  0.00000000E+00  0.00000000E+00
  0.00000000E+00  0.00000000E+00  0.00000000E+00
  0.00000000E+00  0.00000000E+00  0.00000000E+00
  0.00000000E+00  0.00000000E+00  0.00000000E+00
  0.00000000E+00  0.00000000E+00  0.00000000E+00
  0.00000000E+00  0.00000000E+00  0.00000000E+00
  0.00000000E+00  0.00000000E+00  0.00000000E+00
  0.00000000E+00  0.00000000E+00  0.00000000E+00
  0.00000000E+00  0.00000000E+00  0.00000000E+00
  0.00000000E+00  0.00000000E+00  0.00000000E+00
  0.00000000E+00  0.00000000E+00  0.00000000E+00
  0.00000000E+00  0.00000000E+00  0.00000000E+00
  0.00000000E+00  0.00000000E+00  0.00000000E+00
  0.00000000E+00  0.00000000E+00  0.00000000E+00
