ba8 si16                                
   1.00000000000000     
    24.0094680786000012    0.0000000000000000    0.0000000000000000
     0.0000000000000000    6.7778496741999996    0.0000000000000000
     0.0000000000000000    0.0000000000000000   11.6021432877000006
   Ba   Si
     8    16
Selective dynamics
Direct
  0.0056936146836932  0.2500000000663931  0.7052732956535411   F   T   T
  0.3570577832018316  0.7500000176088264  0.2947267043723153   F   T   T
  0.1819296202106742  0.7500000176088264  0.1885520068423003   F   T   T
  0.1808217764253399  0.2500000000663931  0.8114479725839131   F   T   T
  0.0597801408303269  0.7500000176088264  0.9236798232843951   F   T   T
  0.3029712558473392  0.2500000000663931  0.0763201561418187   F   T   T
  0.1278430928145298  0.2500000000663931  0.4020536067570256   F   T   T
  0.2349083038214843  0.7500000176088264  0.5979464343819209   F   T   T
  0.0728991332615152  0.0728100379258194  0.1517005669904937   F   T   T
  0.2898522634161509  0.9271899531923039  0.8482994125219155   F   T   T
  0.1147241003833415  0.9266672309848463  0.6544841904730375   F   T   T
  0.2480272962526726  0.0733327601332776  0.3455158095528193   F   T   T
  0.2898522634161509  0.5728100467634293  0.8482994125219155   F   T   T
  0.0728991332615152  0.4271899532070622  0.1517005669904937   F   T   T
  0.2480272962526726  0.4266672309996036  0.3455158095528193   F   T   T
  0.1147241003833415  0.5733327689708869  0.6544841904730375   F   T   T
  0.0311098080788312  0.7500000176088264  0.5952420223805512   F   T   T
  0.3316415811434439  0.2500000000663931  0.4047579775591166   F   T   T
  0.1565134280650469  0.2500000000663931  0.0915528722155252   F   T   T
  0.2062379785253725  0.7500000176088264  0.9084471072106883   F   T   T
  0.0741839757202953  0.2500000000663931  0.9713779111322136   F   T   T
  0.2885674160009941  0.7500000176088264  0.0286221042356320   F   T   T
  0.1134392529681918  0.7500000176088264  0.4729651726491085   F   T   T
  0.2493121436678223  0.2500000000663931  0.5270347451505614   F   T   T
 
  0.00000000E+00  0.00000000E+00  0.00000000E+00
  0.00000000E+00  0.00000000E+00  0.00000000E+00
  0.00000000E+00  0.00000000E+00  0.00000000E+00
  0.00000000E+00  0.00000000E+00  0.00000000E+00
  0.00000000E+00  0.00000000E+00  0.00000000E+00
  0.00000000E+00  0.00000000E+00  0.00000000E+00
  0.00000000E+00  0.00000000E+00  0.00000000E+00
  0.00000000E+00  0.00000000E+00  0.00000000E+00
  0.00000000E+00  0.00000000E+00  0.00000000E+00
  0.00000000E+00  0.00000000E+00  0.00000000E+00
  0.00000000E+00  0.00000000E+00  0.00000000E+00
  0.00000000E+00  0.00000000E+00  0.00000000E+00
  0.00000000E+00  0.00000000E+00  0.00000000E+00
  0.00000000E+00  0.00000000E+00  0.00000000E+00
  0.00000000E+00  0.00000000E+00  0.00000000E+00
  0.00000000E+00  0.00000000E+00  0.00000000E+00
  0.00000000E+00  0.00000000E+00  0.00000000E+00
  0.00000000E+00  0.00000000E+00  0.00000000E+00
  0.00000000E+00  0.00000000E+00  0.00000000E+00
  0.00000000E+00  0.00000000E+00  0.00000000E+00
  0.00000000E+00  0.00000000E+00  0.00000000E+00
  0.00000000E+00  0.00000000E+00  0.00000000E+00
  0.00000000E+00  0.00000000E+00  0.00000000E+00
  0.00000000E+00  0.00000000E+00  0.00000000E+00
