ba8 si16                                
   1.00000000000000     
    24.0094680786000012    0.0000000000000000    0.0000000000000000
     0.0000000000000000    6.7778496741999996    0.0000000000000000
     0.0000000000000000    0.0000000000000000   11.6021432877000006
   Ba   Si
     8    16
Selective dynamics
Direct
  0.0056936146836932  0.2500000000663931  0.6609705032925048   F   T   T
  0.3320676418944188  0.7500000176088264  0.3390294967333522   F   T   T
  0.1819296202106742  0.7500000176088264  0.1858881779120618   F   T   T
  0.1558316351179272  0.2500000000663931  0.8141118015141516   F   T   T
  0.0597801408303269  0.7500000176088264  0.9569150970956637   F   T   T
  0.2779811145399265  0.2500000000663931  0.0430848823305497   F   T   T
  0.1278430928145298  0.2500000000663931  0.4262795618812064   F   T   T
  0.2099181625140716  0.7500000176088264  0.5737204792577398   F   T   T
  0.0728991332615152  0.0732589049135983  0.1853578631951885   F   T   T
  0.2648621221087382  0.9267410862045248  0.8146421163172212   F   T   T
  0.1147241003833415  0.9274962264227370  0.6445855165602310   F   T   T
  0.2230371549452599  0.0725037646953866  0.3554144834656260   F   T   T
  0.2648621221087382  0.5732589137512084  0.8146421163172212   F   T   T
  0.0728991332615152  0.4267410862192830  0.1853578631951885   F   T   T
  0.2230371549452599  0.4274962264374950  0.3554144834656260   F   T   T
  0.1147241003833415  0.5725037735329962  0.6445855165602310   F   T   T
  0.0311098080788312  0.7500000176088264  0.5752136102875889   F   T   T
  0.3066514398360312  0.2500000000663931  0.4247863896520788   F   T   T
  0.1565134280650469  0.2500000000663931  0.1231241091279911   F   T   T
  0.1812478372179669  0.7500000176088264  0.8768758702982224   F   T   T
  0.0741839757202953  0.2500000000663931  0.0064290763646700   F   T   T
  0.2635772746935814  0.7500000176088264 -0.0064290609968244   F   T   T
  0.1134392529681918  0.7500000176088264  0.4534772904965482   F   T   T
  0.2243220023604167  0.2500000000663931  0.5465226273031217   F   T   T
 
  0.00000000E+00  0.00000000E+00  0.00000000E+00
  0.00000000E+00  0.00000000E+00  0.00000000E+00
  0.00000000E+00  0.00000000E+00  0.00000000E+00
  0.00000000E+00  0.00000000E+00  0.00000000E+00
  0.00000000E+00  0.00000000E+00  0.00000000E+00
  0.00000000E+00  0.00000000E+00  0.00000000E+00
  0.00000000E+00  0.00000000E+00  0.00000000E+00
  0.00000000E+00  0.00000000E+00  0.00000000E+00
  0.00000000E+00  0.00000000E+00  0.00000000E+00
  0.00000000E+00  0.00000000E+00  0.00000000E+00
  0.00000000E+00  0.00000000E+00  0.00000000E+00
  0.00000000E+00  0.00000000E+00  0.00000000E+00
  0.00000000E+00  0.00000000E+00  0.00000000E+00
  0.00000000E+00  0.00000000E+00  0.00000000E+00
  0.00000000E+00  0.00000000E+00  0.00000000E+00
  0.00000000E+00  0.00000000E+00  0.00000000E+00
  0.00000000E+00  0.00000000E+00  0.00000000E+00
  0.00000000E+00  0.00000000E+00  0.00000000E+00
  0.00000000E+00  0.00000000E+00  0.00000000E+00
  0.00000000E+00  0.00000000E+00  0.00000000E+00
  0.00000000E+00  0.00000000E+00  0.00000000E+00
  0.00000000E+00  0.00000000E+00  0.00000000E+00
  0.00000000E+00  0.00000000E+00  0.00000000E+00
  0.00000000E+00  0.00000000E+00  0.00000000E+00
