ba8 si16                                
   1.00000000000000     
    24.0094680786000012    0.0000000000000000    0.0000000000000000
     0.0000000000000000    6.7778496741999996    0.0000000000000000
     0.0000000000000000    0.0000000000000000   11.6021432877000006
   Ba   Si
     8    16
Selective dynamics
Direct
  0.0056936146836932  0.2500000000663931  0.6806676208405442   F   T   T
  0.3362326654456496  0.7500000176088264  0.3193323791853124   F   T   T
  0.1819296202106742  0.7500000176088264  0.1867272933023786   F   T   T
  0.1599966586691650  0.2500000000663931  0.8132726861238352   F   T   T
  0.0597801408303269  0.7500000176088264  0.9449252267459418   F   T   T
  0.2821461380911643  0.2500000000663931  0.0550747526802721   F   T   T
  0.1278430928145298  0.2500000000663931  0.4202241997545191   F   T   T
  0.2140831860653094  0.7500000176088264  0.5797758413844269   F   T   T
  0.0728991332615152  0.0731966077074674  0.1765424718715210   F   T   T
  0.2690271456599760  0.9268033834106557  0.8234575076408891   F   T   T
  0.1147241003833415  0.9268213148124825  0.6471753486701087   F   T   T
  0.2272021784964977  0.0731786763056404  0.3528246513557475   F   T   T
  0.2690271456599760  0.5731966165450775  0.8234575076408891   F   T   T
  0.0728991332615152  0.4268033834254138  0.1765424718715210   F   T   T
  0.2272021784964977  0.4268213148272412  0.3528246513557475   F   T   T
  0.1147241003833415  0.5731786851432507  0.6471753486701087   F   T   T
  0.0311098080788312  0.7500000176088264  0.5819134616618775   F   T   T
  0.3108164633872690  0.2500000000663931  0.4180865382777904   F   T   T
  0.1565134280650469  0.2500000000663931  0.1134586971316828   F   T   T
  0.1854128607691976  0.7500000176088264  0.8865412822945313   F   T   T
  0.0741839757202953  0.2500000000663931  0.9975494914084264   F   T   T
  0.2677422982448192  0.7500000176088264  0.0024505239594190   F   T   T
  0.1134392529681918  0.7500000176088264  0.4602117829812369   F   T   T
  0.2284870259116474  0.2500000000663931  0.5397881348184325   F   T   T
 
  0.00000000E+00  0.00000000E+00  0.00000000E+00
  0.00000000E+00  0.00000000E+00  0.00000000E+00
  0.00000000E+00  0.00000000E+00  0.00000000E+00
  0.00000000E+00  0.00000000E+00  0.00000000E+00
  0.00000000E+00  0.00000000E+00  0.00000000E+00
  0.00000000E+00  0.00000000E+00  0.00000000E+00
  0.00000000E+00  0.00000000E+00  0.00000000E+00
  0.00000000E+00  0.00000000E+00  0.00000000E+00
  0.00000000E+00  0.00000000E+00  0.00000000E+00
  0.00000000E+00  0.00000000E+00  0.00000000E+00
  0.00000000E+00  0.00000000E+00  0.00000000E+00
  0.00000000E+00  0.00000000E+00  0.00000000E+00
  0.00000000E+00  0.00000000E+00  0.00000000E+00
  0.00000000E+00  0.00000000E+00  0.00000000E+00
  0.00000000E+00  0.00000000E+00  0.00000000E+00
  0.00000000E+00  0.00000000E+00  0.00000000E+00
  0.00000000E+00  0.00000000E+00  0.00000000E+00
  0.00000000E+00  0.00000000E+00  0.00000000E+00
  0.00000000E+00  0.00000000E+00  0.00000000E+00
  0.00000000E+00  0.00000000E+00  0.00000000E+00
  0.00000000E+00  0.00000000E+00  0.00000000E+00
  0.00000000E+00  0.00000000E+00  0.00000000E+00
  0.00000000E+00  0.00000000E+00  0.00000000E+00
  0.00000000E+00  0.00000000E+00  0.00000000E+00
