ba8 si16                                
   1.00000000000000     
    24.0094680786000012    0.0000000000000000    0.0000000000000000
     0.0000000000000000    6.7778496741999996    0.0000000000000000
     0.0000000000000000    0.0000000000000000   11.6021432877000006
   Ba   Si
     8    16
Selective dynamics
Direct
  0.0056936146836932  0.2500000000663931  0.6977582440837535   F   T   T
  0.3445627125481252  0.7500000176088264  0.3022417559421032   F   T   T
  0.1819296202106742  0.7500000176088264  0.1888220359504293   F   T   T
  0.1683267057716336  0.2500000000663931  0.8111779434757843   F   T   T
  0.0597801408303269  0.7500000176088264  0.9310798568896040   F   T   T
  0.2904761851936328  0.2500000000663931  0.0689201225366097   F   T   T
  0.1278430928145298  0.2500000000663931  0.4100634233413602   F   T   T
  0.2224132331677779  0.7500000176088264  0.5899366177975865   F   T   T
  0.0728991332615152  0.0728731387591988  0.1628076039494528   F   T   T
  0.2773571927624445  0.9271268523589241  0.8371923755629568   F   T   T
  0.1147241003833415  0.9263790835884367  0.6491456777564442   F   T   T
  0.2355322255989662  0.0736209075296866  0.3508543222694120   F   T   T
  0.2773571927624445  0.5728731475968091  0.8371923755629568   F   T   T
  0.0728991332615152  0.4271268523736825  0.1628076039494528   F   T   T
  0.2355322255989662  0.4263790836031948  0.3508543222694120   F   T   T
  0.1147241003833415  0.5736209163672965  0.6491456777564442   F   T   T
  0.0311098080788312  0.7500000176088264  0.5879338627154619   F   T   T
  0.3191465104897375  0.2500000000663931  0.4120661372242058   F   T   T
  0.1565134280650469  0.2500000000663931  0.1007188086825217   F   T   T
  0.1937429078716733  0.7500000176088264  0.8992811707436920   F   T   T
  0.0741839757202953  0.2500000000663931  0.9835303195748561   F   T   T
  0.2760723453472878  0.7500000176088264  0.0164696957929894   F   T   T
  0.1134392529681918  0.7500000176088264  0.4661304466322816   F   T   T
  0.2368170730141230  0.2500000000663931  0.5338694711673881   F   T   T
 
  0.00000000E+00  0.00000000E+00  0.00000000E+00
  0.00000000E+00  0.00000000E+00  0.00000000E+00
  0.00000000E+00  0.00000000E+00  0.00000000E+00
  0.00000000E+00  0.00000000E+00  0.00000000E+00
  0.00000000E+00  0.00000000E+00  0.00000000E+00
  0.00000000E+00  0.00000000E+00  0.00000000E+00
  0.00000000E+00  0.00000000E+00  0.00000000E+00
  0.00000000E+00  0.00000000E+00  0.00000000E+00
  0.00000000E+00  0.00000000E+00  0.00000000E+00
  0.00000000E+00  0.00000000E+00  0.00000000E+00
  0.00000000E+00  0.00000000E+00  0.00000000E+00
  0.00000000E+00  0.00000000E+00  0.00000000E+00
  0.00000000E+00  0.00000000E+00  0.00000000E+00
  0.00000000E+00  0.00000000E+00  0.00000000E+00
  0.00000000E+00  0.00000000E+00  0.00000000E+00
  0.00000000E+00  0.00000000E+00  0.00000000E+00
  0.00000000E+00  0.00000000E+00  0.00000000E+00
  0.00000000E+00  0.00000000E+00  0.00000000E+00
  0.00000000E+00  0.00000000E+00  0.00000000E+00
  0.00000000E+00  0.00000000E+00  0.00000000E+00
  0.00000000E+00  0.00000000E+00  0.00000000E+00
  0.00000000E+00  0.00000000E+00  0.00000000E+00
  0.00000000E+00  0.00000000E+00  0.00000000E+00
  0.00000000E+00  0.00000000E+00  0.00000000E+00
