ba8 si16                                
   1.00000000000000     
    24.0094680786000012    0.0000000000000000    0.0000000000000000
     0.0000000000000000    6.7778496741999996    0.0000000000000000
     0.0000000000000000    0.0000000000000000   11.6021432877000006
   Ba   Si
     8    16
Selective dynamics
Direct
  0.0056936146836932  0.2500000000663931  0.7043962372557082   F   T   T
  0.3528927596505937  0.7500000176088264  0.2956037627701482   F   T   T
  0.1819296202106742  0.7500000176088264  0.1886687424059105   F   T   T
  0.1766567528741092  0.2500000000663931  0.8113312370203030   F   T   T
  0.0597801408303269  0.7500000176088264  0.9256272763012415   F   T   T
  0.2988062322961014  0.2500000000663931  0.0743727031249718   F   T   T
  0.1278430928145298  0.2500000000663931  0.4043830980586998   F   T   T
  0.2307432802702465  0.7500000176088264  0.5956169430802469   F   T   T
  0.0728991332615152  0.0727888635920734  0.1547625175169136   F   T   T
  0.2856872398649131  0.9272111275260497  0.8452374619954963   F   T   T
  0.1147241003833415  0.9264560404289457  0.6531190169733007   F   T   T
  0.2438622727014348  0.0735439506891776  0.3468809830525557   F   T   T
  0.2856872398649131  0.5727888724296835  0.8452374619954963   F   T   T
  0.0728991332615152  0.4272111275408081  0.1547625175169136   F   T   T
  0.2438622727014348  0.4264560404437037  0.3468809830525557   F   T   T
  0.1147241003833415  0.5735439595267875  0.6531190169733007   F   T   T
  0.0311098080788312  0.7500000176088264  0.5932472133067691   F   T   T
  0.3274765575922132  0.2500000000663931  0.4067527866328987   F   T   T
  0.1565134280650469  0.2500000000663931  0.0942690288779316   F   T   T
  0.2020729549741418  0.7500000176088264  0.9057309505482821   F   T   T
  0.0741839757202953  0.2500000000663931  0.9748002857076756   F   T   T
  0.2844023924497634  0.7500000176088264  0.0251997296601701   F   T   T
  0.1134392529681918  0.7500000176088264  0.4713130966345369   F   T   T
  0.2451471201165916  0.2500000000663931  0.5286868211651327   F   T   T
 
  0.00000000E+00  0.00000000E+00  0.00000000E+00
  0.00000000E+00  0.00000000E+00  0.00000000E+00
  0.00000000E+00  0.00000000E+00  0.00000000E+00
  0.00000000E+00  0.00000000E+00  0.00000000E+00
  0.00000000E+00  0.00000000E+00  0.00000000E+00
  0.00000000E+00  0.00000000E+00  0.00000000E+00
  0.00000000E+00  0.00000000E+00  0.00000000E+00
  0.00000000E+00  0.00000000E+00  0.00000000E+00
  0.00000000E+00  0.00000000E+00  0.00000000E+00
  0.00000000E+00  0.00000000E+00  0.00000000E+00
  0.00000000E+00  0.00000000E+00  0.00000000E+00
  0.00000000E+00  0.00000000E+00  0.00000000E+00
  0.00000000E+00  0.00000000E+00  0.00000000E+00
  0.00000000E+00  0.00000000E+00  0.00000000E+00
  0.00000000E+00  0.00000000E+00  0.00000000E+00
  0.00000000E+00  0.00000000E+00  0.00000000E+00
  0.00000000E+00  0.00000000E+00  0.00000000E+00
  0.00000000E+00  0.00000000E+00  0.00000000E+00
  0.00000000E+00  0.00000000E+00  0.00000000E+00
  0.00000000E+00  0.00000000E+00  0.00000000E+00
  0.00000000E+00  0.00000000E+00  0.00000000E+00
  0.00000000E+00  0.00000000E+00  0.00000000E+00
  0.00000000E+00  0.00000000E+00  0.00000000E+00
  0.00000000E+00  0.00000000E+00  0.00000000E+00
