ba8 si16                                
   1.00000000000000     
    24.0094680786000012    0.0000000000000000    0.0000000000000000
     0.0000000000000000    6.7778496741999996    0.0000000000000000
     0.0000000000000000    0.0000000000000000   11.6021432877000006
   Ba   Si
     8    16
Selective dynamics
Direct
  0.0056936146836932  0.2500000000663931  0.6259216143008698   F   T   T
  0.3279026183431810  0.7500000176088264  0.3740783857249876   F   T   T
  0.1819296202106742  0.7500000176088264  0.1844396579350353   F   T   T
  0.1516666115666965  0.2500000000663931  0.8155603214911785   F   T   T
  0.0597801408303269  0.7500000176088264  0.9685176491443033   F   T   T
  0.2738160909886886  0.2500000000663931  0.0314823302819104   F   T   T
  0.1278430928145298  0.2500000000663931  0.4332486461473607   F   T   T
  0.2057531389628409  0.7500000176088264  0.5667513949915857   F   T   T
  0.0728991332615152  0.0730732032116396  0.1962212940385143   F   T   T
  0.2606970985575003  0.9269267879064840  0.8037786854738957   F   T   T
  0.1147241003833415  0.9282285305168378  0.6433335873591827   F   T   T
  0.2188721313940221  0.0717714606012856  0.3566664126666738   F   T   T
  0.2606970985575003  0.5730732120492492  0.8037786854738957   F   T   T
  0.0728991332615152  0.4269267879212416  0.1962212940385143   F   T   T
  0.2188721313940221  0.4282285305315959  0.3566664126666738   F   T   T
  0.1147241003833415  0.5717714694388953  0.6433335873591827   F   T   T
  0.0311098080788312  0.7500000176088264  0.5670577351727053   F   T   T
  0.3024864162848004  0.2500000000663931  0.4329422647669625   F   T   T
  0.1565134280650469  0.2500000000663931  0.1364697578656497   F   T   T
  0.1770828136667291  0.7500000176088264  0.8635302215605641   F   T   T
  0.0741839757202953  0.2500000000663931  0.0168420767679907   F   T   T
  0.2594122511423507  0.7500000176088264 -0.0168420614001449   F   T   T
  0.1134392529681918  0.7500000176088264  0.4445082683520571   F   T   T
  0.2201569788091788  0.2500000000663931  0.5554916494476132   F   T   T
 
  0.00000000E+00  0.00000000E+00  0.00000000E+00
  0.00000000E+00  0.00000000E+00  0.00000000E+00
  0.00000000E+00  0.00000000E+00  0.00000000E+00
  0.00000000E+00  0.00000000E+00  0.00000000E+00
  0.00000000E+00  0.00000000E+00  0.00000000E+00
  0.00000000E+00  0.00000000E+00  0.00000000E+00
  0.00000000E+00  0.00000000E+00  0.00000000E+00
  0.00000000E+00  0.00000000E+00  0.00000000E+00
  0.00000000E+00  0.00000000E+00  0.00000000E+00
  0.00000000E+00  0.00000000E+00  0.00000000E+00
  0.00000000E+00  0.00000000E+00  0.00000000E+00
  0.00000000E+00  0.00000000E+00  0.00000000E+00
  0.00000000E+00  0.00000000E+00  0.00000000E+00
  0.00000000E+00  0.00000000E+00  0.00000000E+00
  0.00000000E+00  0.00000000E+00  0.00000000E+00
  0.00000000E+00  0.00000000E+00  0.00000000E+00
  0.00000000E+00  0.00000000E+00  0.00000000E+00
  0.00000000E+00  0.00000000E+00  0.00000000E+00
  0.00000000E+00  0.00000000E+00  0.00000000E+00
  0.00000000E+00  0.00000000E+00  0.00000000E+00
  0.00000000E+00  0.00000000E+00  0.00000000E+00
  0.00000000E+00  0.00000000E+00  0.00000000E+00
  0.00000000E+00  0.00000000E+00  0.00000000E+00
  0.00000000E+00  0.00000000E+00  0.00000000E+00
