ba8 si16                                
   1.00000000000000     
    24.0094680786000012    0.0000000000000000    0.0000000000000000
     0.0000000000000000    6.7778496741999996    0.0000000000000000
     0.0000000000000000    0.0000000000000000   11.6021432877000006
   Ba   Si
     8    16
Selective dynamics
Direct
  0.0056936146836932  0.2500000000663931  0.6923763027083829   F   T   T
  0.3403976889968874  0.7500000176088264  0.3076236973174738   F   T   T
  0.1819296202106742  0.7500000176088264  0.1881533817323715   F   T   T
  0.1641616822204028  0.2500000000663931  0.8118465976938427   F   T   T
  0.0597801408303269  0.7500000176088264  0.9364316250735862   F   T   T
  0.2863111616423950  0.2500000000663931  0.0635683543526275   F   T   T
  0.1278430928145298  0.2500000000663931  0.4143794325404253   F   T   T
  0.2182482096165401  0.7500000176088264  0.5856206085985211   F   T   T
  0.0728991332615152  0.0730592145805083  0.1682968237348196   F   T   T
  0.2731921692112067  0.9269407765376153  0.8317031557775902   F   T   T
  0.1147241003833415  0.9265297356597132  0.6482827710730820   F   T   T
  0.2313672020477284  0.0734702554584105  0.3517172289527746   F   T   T
  0.2731921692112067  0.5730592234181179  0.8317031557775902   F   T   T
  0.0728991332615152  0.4269407765523730  0.1682968237348196   F   T   T
  0.2313672020477284  0.4265297356744709  0.3517172289527746   F   T   T
  0.1147241003833415  0.5734702642960200  0.6482827710730820   F   T   T
  0.0311098080788312  0.7500000176088264  0.5856787443408772   F   T   T
  0.3149814869385068  0.2500000000663931  0.4143212555987907   F   T   T
  0.1565134280650469  0.2500000000663931  0.1051927639939738   F   T   T
  0.1895778843204354  0.7500000176088264  0.8948072154322397   F   T   T
  0.0741839757202953  0.2500000000663931  0.9893834593420768   F   T   T
  0.2719073217960570  0.7500000176088264  0.0106165560257689   F   T   T
  0.1134392529681918  0.7500000176088264  0.4638072894405910   F   T   T
  0.2326520494628852  0.2500000000663931  0.5361926283590787   F   T   T
 
  0.00000000E+00  0.00000000E+00  0.00000000E+00
  0.00000000E+00  0.00000000E+00  0.00000000E+00
  0.00000000E+00  0.00000000E+00  0.00000000E+00
  0.00000000E+00  0.00000000E+00  0.00000000E+00
  0.00000000E+00  0.00000000E+00  0.00000000E+00
  0.00000000E+00  0.00000000E+00  0.00000000E+00
  0.00000000E+00  0.00000000E+00  0.00000000E+00
  0.00000000E+00  0.00000000E+00  0.00000000E+00
  0.00000000E+00  0.00000000E+00  0.00000000E+00
  0.00000000E+00  0.00000000E+00  0.00000000E+00
  0.00000000E+00  0.00000000E+00  0.00000000E+00
  0.00000000E+00  0.00000000E+00  0.00000000E+00
  0.00000000E+00  0.00000000E+00  0.00000000E+00
  0.00000000E+00  0.00000000E+00  0.00000000E+00
  0.00000000E+00  0.00000000E+00  0.00000000E+00
  0.00000000E+00  0.00000000E+00  0.00000000E+00
  0.00000000E+00  0.00000000E+00  0.00000000E+00
  0.00000000E+00  0.00000000E+00  0.00000000E+00
  0.00000000E+00  0.00000000E+00  0.00000000E+00
  0.00000000E+00  0.00000000E+00  0.00000000E+00
  0.00000000E+00  0.00000000E+00  0.00000000E+00
  0.00000000E+00  0.00000000E+00  0.00000000E+00
  0.00000000E+00  0.00000000E+00  0.00000000E+00
  0.00000000E+00  0.00000000E+00  0.00000000E+00
