ba8 si16                                
1.0
       24.0094680786         0.0000000000         0.0000000000
        0.0000000000         6.7778496742         0.0000000000
        0.0000000000         0.0000000000        11.6021432877
   Ba   Si
    8   16
Selective Dynamics
Cartesian
     0.136700655         1.694462419         8.197219131 F T T
     8.662767373         5.083387256         3.404924503 F T T
     4.368033359         5.083387256         2.175556253 F T T
     4.431434669         1.694462419         9.426586516 F T T
     1.435289350         5.083387256        10.675990628 F T T
     7.364178409         1.694462419         0.926152314 F T T
     3.069444753         1.694462419         4.618544448 F T T
     5.730023275         5.083387256         6.983599531 F T T
     1.750269406         0.494312268         1.697475545 F T T
     7.049198622         6.283537204         9.904667224 F T T
     2.754464608         6.286445942         7.641028795 F T T
     6.04500342         0.491403531         3.961114492 F T T
     7.049198622         3.883237307         9.904667224 F T T
     1.750269406         2.894612569         1.697475545 F T T
     6.04500342         2.897521307         3.961114492 F T T
     2.754464608         3.880328570         7.641028795 F T T
     0.746929942         5.083387256         6.955621832 F T T
     8.052538041         1.694462419         4.646521110 F T T
     3.757804027         1.694462419         0.998658465 F T T
     5.041664001         5.083387256         10.603484563 F T T
     1.781117855         1.694462419        11.195001611 F T T
     7.018350352         5.083387256         0.407141677 F T T
     2.723616159         5.083387256         5.532745193 F T T
     6.07585169         1.694462419         6.069396711 F T T
