ba8 si16                                
   1.00000000000000     
    23.2094680786000005    0.0000000000000000    0.0000000000000000
     0.0000000000000000    6.7778496741999996    0.0000000000000000
     0.0000000000000000    0.0000000000000000   11.6021432877000006
   Ba   Si
     8    16
Selective dynamics
Direct
  0.0056936146836932  0.2500000000663931  0.7056223680230117   F   T   T
  0.3695528538555379  0.7500000176088264  0.2943776320028446   F   T   T
  0.1819296202106742  0.7500000176088264  0.1876729357864372   F   T   T
  0.1933168470790463  0.2500000000663931  0.8123270436397770   F   T   T
  0.0597801408303269  0.7500000176088264  0.9198885834342528   F   T   T
  0.3154663265010456  0.2500000000663931  0.0801113959919611   F   T   T
  0.1278430928145298  0.2500000000663931  0.3977367905745268   F   T   T
  0.2474033744751907  0.7500000176088264  0.6022632505644199   F   T   T
  0.0728991332615152  0.0728718259349300  0.1461309392607597   F   T   T
  0.3023473340698573  0.9271281651831937  0.8538690402516496   F   T   T
  0.1147241003833415  0.9274451414583563  0.6581307464373475   F   T   T
  0.2605223669063790  0.0725548496597671  0.3418692535885091   F   T   T
  0.3023473340698573  0.5728718347725394  0.8538690402516496   F   T   T
  0.0728991332615152  0.4271281651979515  0.1461309392607597   F   T   T
  0.2605223669063790  0.4274451414731143  0.3418692535885091   F   T   T
  0.1147241003833415  0.5725548584973769  0.6581307464373475   F   T   T
  0.0311098080788312  0.7500000176088264  0.5991991253098765   F   T   T
  0.3441366517971503  0.2500000000663931  0.4008008746297914   F   T   T
  0.1565134280650469  0.2500000000663931  0.0859502656373605   F   T   T
  0.2187330491790789  0.7500000176088264  0.9140497137888532   F   T   T
  0.0741839757202953  0.2500000000663931  0.9647390877075073   F   T   T
  0.3010624866547005  0.7500000176088264  0.0352609276603386   F   T   T
  0.1134392529681918  0.7500000176088264  0.4764149829374135   F   T   T
  0.2618072143215286  0.2500000000663931  0.5235849348622569   F   T   T
