ba8 si16                                
   1.00000000000000     
     7.0094680785999994    0.0000000000000000    0.0000000000000000
     0.0000000000000000    6.7778496741999996    0.0000000000000000
     0.0000000000000000    0.0000000000000000   11.6021432877000006
   Ba   Si
     8    16
Direct
  0.0143759204673404  0.2500000000663931  0.6922144577049876
  0.9856240827958910  0.7500000176088264  0.3077855423208691
  0.4856240828291872  0.7500000176088264  0.1922143959793229
  0.5143759171042138  0.2500000000663931  0.8077855834468908
  0.1575600170002987  0.7500000176088264  0.9060837729641082
  0.8424399830441032  0.2500000000663931  0.0939162064621056
  0.3424399829664053  0.2500000000663931  0.4060838551773630
  0.6575600169669955  0.7500000176088264  0.5939161859615834
  0.1941495848276690  0.0724255115819227  0.1459365051550958
  0.8058504152167257  0.9275744795362009  0.8540634743573140
  0.3058504151390278  0.9275744795362009  0.6459365256814745
  0.6941495847943729  0.0724255115819227  0.3540634743443820
  0.8058504152167257  0.5724255204195323  0.8540634743573140
  0.1941495848276690  0.4275744795509587  0.1459365051550958
  0.6941495847943729  0.4275744795509587  0.3540634743443820
  0.3058504151390278  0.5724255204195323  0.6459365256814745
  0.0843810270680595  0.7500000176088264  0.5904976413537604
  0.9156189531083523  0.2500000000663931  0.4095023585859077
  0.4156189795583057  0.2500000000663931  0.0904975797142845
  0.5843810469027464  0.7500000176088264  0.9095023997119291
  0.1973038497176655  0.2500000000663931  0.9662797112308867
  0.8026961371184077  0.7500000176088264  0.0337203041369591
  0.3026961370407097  0.7500000176088264  0.4662796290779638
  0.6973038628926910  0.2500000000663931  0.5337202887217058
 
  0.00000000E+00  0.00000000E+00  0.00000000E+00
  0.00000000E+00  0.00000000E+00  0.00000000E+00
  0.00000000E+00  0.00000000E+00  0.00000000E+00
  0.00000000E+00  0.00000000E+00  0.00000000E+00
  0.00000000E+00  0.00000000E+00  0.00000000E+00
  0.00000000E+00  0.00000000E+00  0.00000000E+00
  0.00000000E+00  0.00000000E+00  0.00000000E+00
  0.00000000E+00  0.00000000E+00  0.00000000E+00
  0.00000000E+00  0.00000000E+00  0.00000000E+00
  0.00000000E+00  0.00000000E+00  0.00000000E+00
  0.00000000E+00  0.00000000E+00  0.00000000E+00
  0.00000000E+00  0.00000000E+00  0.00000000E+00
  0.00000000E+00  0.00000000E+00  0.00000000E+00
  0.00000000E+00  0.00000000E+00  0.00000000E+00
  0.00000000E+00  0.00000000E+00  0.00000000E+00
  0.00000000E+00  0.00000000E+00  0.00000000E+00
  0.00000000E+00  0.00000000E+00  0.00000000E+00
  0.00000000E+00  0.00000000E+00  0.00000000E+00
  0.00000000E+00  0.00000000E+00  0.00000000E+00
  0.00000000E+00  0.00000000E+00  0.00000000E+00
  0.00000000E+00  0.00000000E+00  0.00000000E+00
  0.00000000E+00  0.00000000E+00  0.00000000E+00
  0.00000000E+00  0.00000000E+00  0.00000000E+00
  0.00000000E+00  0.00000000E+00  0.00000000E+00
