ba8 si16                                
   1.00000000000000     
    24.0094680786000012    0.0000000000000000    0.0000000000000000
     0.0000000000000000    6.7778496741999996    0.0000000000000000
     0.0000000000000000    0.0000000000000000   11.6021432877000006
   Ba   Si
     8    16
Selective dynamics
Direct
  0.0056936146836932  0.2500000000663931  0.6962661188253281   F   T   T
  0.3403976889968874  0.7500000176088264  0.3037338812005282   F   T   T
  0.1819296202106742  0.7500000176088264  0.1881392788188301   F   T   T
  0.1641616822204028  0.2500000000663931  0.8118607006073834   F   T   T
  0.0597801408303269  0.7500000176088264  0.9327757695371052   F   T   T
  0.2863111616423950  0.2500000000663931  0.0672242098891090   F   T   T
  0.1278430928145298  0.2500000000663931  0.4118401069265885   F   T   T
  0.2182482096165401  0.7500000176088264  0.5881599342123576   F   T   T
  0.0728991332615152  0.0738081112555026  0.1649608308717879   F   T   T
  0.2731921692112067  0.9261918798626207  0.8350391486406215   F   T   T
  0.1147241003833415  0.9264897957813056  0.6496494721195251   F   T   T
  0.2313672020477284  0.0735101953368178  0.3503505279063317   F   T   T
  0.2731921692112067  0.5738081200931124  0.8350391486406215   F   T   T
  0.0728991332615152  0.4261918798773788  0.1649608308717879   F   T   T
  0.2313672020477284  0.4264897957960636  0.3503505279063317   F   T   T
  0.1147241003833415  0.5735102041744276  0.6496494721195251   F   T   T
  0.0311098080788312  0.7500000176088264  0.5911334844169721   F   T   T
  0.3149814869385068  0.2500000000663931  0.4088665155226960   F   T   T
  0.1565134280650469  0.2500000000663931  0.1027142368711291   F   T   T
  0.1895778843204354  0.7500000176088264  0.8972857425550850   F   T   T
  0.0741839757202953  0.2500000000663931  0.9871013832114556   F   T   T
  0.2719073217960570  0.7500000176088264  0.0128986321563903   F   T   T
  0.1134392529681918  0.7500000176088264  0.4668968359272508   F   T   T
  0.2326520494628852  0.2500000000663931  0.5331030818724195   F   T   T
 
  0.00000000E+00  0.00000000E+00  0.00000000E+00
  0.00000000E+00  0.00000000E+00  0.00000000E+00
  0.00000000E+00  0.00000000E+00  0.00000000E+00
  0.00000000E+00  0.00000000E+00  0.00000000E+00
  0.00000000E+00  0.00000000E+00  0.00000000E+00
  0.00000000E+00  0.00000000E+00  0.00000000E+00
  0.00000000E+00  0.00000000E+00  0.00000000E+00
  0.00000000E+00  0.00000000E+00  0.00000000E+00
  0.00000000E+00  0.00000000E+00  0.00000000E+00
  0.00000000E+00  0.00000000E+00  0.00000000E+00
  0.00000000E+00  0.00000000E+00  0.00000000E+00
  0.00000000E+00  0.00000000E+00  0.00000000E+00
  0.00000000E+00  0.00000000E+00  0.00000000E+00
  0.00000000E+00  0.00000000E+00  0.00000000E+00
  0.00000000E+00  0.00000000E+00  0.00000000E+00
  0.00000000E+00  0.00000000E+00  0.00000000E+00
  0.00000000E+00  0.00000000E+00  0.00000000E+00
  0.00000000E+00  0.00000000E+00  0.00000000E+00
  0.00000000E+00  0.00000000E+00  0.00000000E+00
  0.00000000E+00  0.00000000E+00  0.00000000E+00
  0.00000000E+00  0.00000000E+00  0.00000000E+00
  0.00000000E+00  0.00000000E+00  0.00000000E+00
  0.00000000E+00  0.00000000E+00  0.00000000E+00
  0.00000000E+00  0.00000000E+00  0.00000000E+00
