ba8 si16                                
   1.00000000000000     
    24.0094680786000012    0.0000000000000000    0.0000000000000000
     0.0000000000000000    6.7778496741999996    0.0000000000000000
     0.0000000000000000    0.0000000000000000   11.6021432877000006
   Ba   Si
     8    16
Selective dynamics
Direct
  0.0056936146836932  0.2500000000663931  0.7109561515297111   F   T   T
  0.3653878303043001  0.7500000176088264  0.2890438484961455   F   T   T
  0.1819296202106742  0.7500000176088264  0.1857489434166038   F   T   T
  0.1891518235278156  0.2500000000663931  0.8142510360096104   F   T   T
  0.0597801408303269  0.7500000176088264  0.9210895495801144   F   T   T
  0.3113013029498077  0.2500000000663931  0.0789104298460998   F   T   T
  0.1278430928145298  0.2500000000663931  0.3975406953081655   F   T   T
  0.2432383509239529  0.7500000176088264  0.6024593458307809   F   T   T
  0.0728991332615152  0.0739781262643049  0.1462003076327124   F   T   T
  0.2981823105186194  0.9260218648538182  0.8537996718796973   F   T   T
  0.1147241003833415  0.9264995238063432  0.6627484020674357   F   T   T
  0.2563573433551412  0.0735004673117804  0.3372515979584214   F   T   T
  0.2981823105186194  0.5739781351019150  0.8537996718796973   F   T   T
  0.0728991332615152  0.4260218648685765  0.1462003076327124   F   T   T
  0.2563573433551412  0.4264995238211013  0.3372515979584214   F   T   T
  0.1147241003833415  0.5735004761493900  0.6627484020674357   F   T   T
  0.0311098080788312  0.7500000176088264  0.6062446736427695   F   T   T
  0.3399716282459195  0.2500000000663931  0.3937553262968987   F   T   T
  0.1565134280650469  0.2500000000663931  0.0871492870440807   F   T   T
  0.2145680256278482  0.7500000176088264  0.9128506923821328   F   T   T
  0.0741839757202953  0.2500000000663931  0.9660296309473763   F   T   T
  0.2968974631034698  0.7500000176088264  0.0339703844204692   F   T   T
  0.1134392529681918  0.7500000176088264  0.4820506964960079   F   T   T
  0.2576421907702979  0.2500000000663931  0.5179492213036621   F   T   T
 
  0.00000000E+00  0.00000000E+00  0.00000000E+00
  0.00000000E+00  0.00000000E+00  0.00000000E+00
  0.00000000E+00  0.00000000E+00  0.00000000E+00
  0.00000000E+00  0.00000000E+00  0.00000000E+00
  0.00000000E+00  0.00000000E+00  0.00000000E+00
  0.00000000E+00  0.00000000E+00  0.00000000E+00
  0.00000000E+00  0.00000000E+00  0.00000000E+00
  0.00000000E+00  0.00000000E+00  0.00000000E+00
  0.00000000E+00  0.00000000E+00  0.00000000E+00
  0.00000000E+00  0.00000000E+00  0.00000000E+00
  0.00000000E+00  0.00000000E+00  0.00000000E+00
  0.00000000E+00  0.00000000E+00  0.00000000E+00
  0.00000000E+00  0.00000000E+00  0.00000000E+00
  0.00000000E+00  0.00000000E+00  0.00000000E+00
  0.00000000E+00  0.00000000E+00  0.00000000E+00
  0.00000000E+00  0.00000000E+00  0.00000000E+00
  0.00000000E+00  0.00000000E+00  0.00000000E+00
  0.00000000E+00  0.00000000E+00  0.00000000E+00
  0.00000000E+00  0.00000000E+00  0.00000000E+00
  0.00000000E+00  0.00000000E+00  0.00000000E+00
  0.00000000E+00  0.00000000E+00  0.00000000E+00
  0.00000000E+00  0.00000000E+00  0.00000000E+00
  0.00000000E+00  0.00000000E+00  0.00000000E+00
  0.00000000E+00  0.00000000E+00  0.00000000E+00
