ba8 si16                                
   1.00000000000000     
    24.0094680786000012    0.0000000000000000    0.0000000000000000
     0.0000000000000000    6.7778496741999996    0.0000000000000000
     0.0000000000000000    0.0000000000000000   11.6021432877000006
   Ba   Si
     8    16
Selective dynamics
Direct
  0.0056936146836932  0.2500000000663931  0.6644131967725936   F   T   T
  0.3320676418944188  0.7500000176088264  0.3355868032532629   F   T   T
  0.1819296202106742  0.7500000176088264  0.1863952252279300   F   T   T
  0.1558316351179272  0.2500000000663931  0.8136047541982835   F   T   T
  0.0597801408303269  0.7500000176088264  0.9542980397178898   F   T   T
  0.2779811145399265  0.2500000000663931  0.0457019397083242   F   T   T
  0.1278430928145298  0.2500000000663931  0.4238901898535663   F   T   T
  0.2099181625140716  0.7500000176088264  0.5761098512853801   F   T   T
  0.0728991332615152  0.0740826580856753  0.1820017744254915   F   T   T
  0.2648621221087382  0.9259173330324484  0.8179982050869182   F   T   T
  0.1147241003833415  0.9278711051902080  0.6449527809883024   F   T   T
  0.2230371549452599  0.0721288859279153  0.3550472190375537   F   T   T
  0.2648621221087382  0.5740826669232848  0.8179982050869182   F   T   T
  0.0728991332615152  0.4259173330472064  0.1820017744254915   F   T   T
  0.2230371549452599  0.4278711052049660  0.3550472190375537   F   T   T
  0.1147241003833415  0.5721288947655252  0.6449527809883024   F   T   T
  0.0311098080788312  0.7500000176088264  0.5804815405201356   F   T   T
  0.3066514398360312  0.2500000000663931  0.4195184594195313   F   T   T
  0.1565134280650469  0.2500000000663931  0.1204963462820594   F   T   T
  0.1812478372179669  0.7500000176088264  0.8795036331441535   F   T   T
  0.0741839757202953  0.2500000000663931  0.0042053540977308   F   T   T
  0.2635772746935814  0.7500000176088264 -0.0042053387298850   F   T   T
  0.1134392529681918  0.7500000176088264  0.4562713608851468   F   T   T
  0.2243220023604167  0.2500000000663931  0.5437285569145226   F   T   T
 
  0.00000000E+00  0.00000000E+00  0.00000000E+00
  0.00000000E+00  0.00000000E+00  0.00000000E+00
  0.00000000E+00  0.00000000E+00  0.00000000E+00
  0.00000000E+00  0.00000000E+00  0.00000000E+00
  0.00000000E+00  0.00000000E+00  0.00000000E+00
  0.00000000E+00  0.00000000E+00  0.00000000E+00
  0.00000000E+00  0.00000000E+00  0.00000000E+00
  0.00000000E+00  0.00000000E+00  0.00000000E+00
  0.00000000E+00  0.00000000E+00  0.00000000E+00
  0.00000000E+00  0.00000000E+00  0.00000000E+00
  0.00000000E+00  0.00000000E+00  0.00000000E+00
  0.00000000E+00  0.00000000E+00  0.00000000E+00
  0.00000000E+00  0.00000000E+00  0.00000000E+00
  0.00000000E+00  0.00000000E+00  0.00000000E+00
  0.00000000E+00  0.00000000E+00  0.00000000E+00
  0.00000000E+00  0.00000000E+00  0.00000000E+00
  0.00000000E+00  0.00000000E+00  0.00000000E+00
  0.00000000E+00  0.00000000E+00  0.00000000E+00
  0.00000000E+00  0.00000000E+00  0.00000000E+00
  0.00000000E+00  0.00000000E+00  0.00000000E+00
  0.00000000E+00  0.00000000E+00  0.00000000E+00
  0.00000000E+00  0.00000000E+00  0.00000000E+00
  0.00000000E+00  0.00000000E+00  0.00000000E+00
  0.00000000E+00  0.00000000E+00  0.00000000E+00
