ba8 si16                                
   1.00000000000000     
    24.0094680786000012    0.0000000000000000    0.0000000000000000
     0.0000000000000000    6.7778496741999996    0.0000000000000000
     0.0000000000000000    0.0000000000000000   11.6021432877000006
   Ba   Si
     8    16
Selective dynamics
Direct
  0.0056936146836932  0.2500000000663931  0.7106399093707468   F   T   T
  0.3612228067530623  0.7500000176088264  0.2893600906551096   F   T   T
  0.1819296202106742  0.7500000176088264  0.1863282616321886   F   T   T
  0.1849867999765777  0.2500000000663931  0.8136717177940253   F   T   T
  0.0597801408303269  0.7500000176088264  0.9217845786137753   F   T   T
  0.3071362793985699  0.2500000000663931  0.0782154008124389   F   T   T
  0.1278430928145298  0.2500000000663931  0.3987794807217112   F   T   T
  0.2390733273727221  0.7500000176088264  0.6012205604172356   F   T   T
  0.0728991332615152  0.0738656122139372  0.1478597389679388   F   T   T
  0.2940172869673816  0.9261343789041858  0.8521402405444709   F   T   T
  0.1147241003833415  0.9262820062891727  0.6609406401865916   F   T   T
  0.2521923198039104  0.0737179848289508  0.3390593598392652   F   T   T
  0.2940172869673816  0.5738656210515474  0.8521402405444709   F   T   T
  0.0728991332615152  0.4261343789189441  0.1478597389679388   F   T   T
  0.2521923198039104  0.4262820063039309  0.3390593598392652   F   T   T
  0.1147241003833415  0.5737179936665605  0.6609406401865916   F   T   T
  0.0311098080788312  0.7500000176088264  0.6042216271012055   F   T   T
  0.3358066046946817  0.2500000000663931  0.3957783728384622   F   T   T
  0.1565134280650469  0.2500000000663931  0.0892578536740098   F   T   T
  0.2104030020766103  0.7500000176088264  0.9107421257522044   F   T   T
  0.0741839757202953  0.2500000000663931  0.9680743812341323   F   T   T
  0.2927324395522319  0.7500000176088264  0.0319256341337134   F   T   T
  0.1134392529681918  0.7500000176088264  0.4803388643358200   F   T   T
  0.2534771672190601  0.2500000000663931  0.5196610534638502   F   T   T
 
  0.00000000E+00  0.00000000E+00  0.00000000E+00
  0.00000000E+00  0.00000000E+00  0.00000000E+00
  0.00000000E+00  0.00000000E+00  0.00000000E+00
  0.00000000E+00  0.00000000E+00  0.00000000E+00
  0.00000000E+00  0.00000000E+00  0.00000000E+00
  0.00000000E+00  0.00000000E+00  0.00000000E+00
  0.00000000E+00  0.00000000E+00  0.00000000E+00
  0.00000000E+00  0.00000000E+00  0.00000000E+00
  0.00000000E+00  0.00000000E+00  0.00000000E+00
  0.00000000E+00  0.00000000E+00  0.00000000E+00
  0.00000000E+00  0.00000000E+00  0.00000000E+00
  0.00000000E+00  0.00000000E+00  0.00000000E+00
  0.00000000E+00  0.00000000E+00  0.00000000E+00
  0.00000000E+00  0.00000000E+00  0.00000000E+00
  0.00000000E+00  0.00000000E+00  0.00000000E+00
  0.00000000E+00  0.00000000E+00  0.00000000E+00
  0.00000000E+00  0.00000000E+00  0.00000000E+00
  0.00000000E+00  0.00000000E+00  0.00000000E+00
  0.00000000E+00  0.00000000E+00  0.00000000E+00
  0.00000000E+00  0.00000000E+00  0.00000000E+00
  0.00000000E+00  0.00000000E+00  0.00000000E+00
  0.00000000E+00  0.00000000E+00  0.00000000E+00
  0.00000000E+00  0.00000000E+00  0.00000000E+00
  0.00000000E+00  0.00000000E+00  0.00000000E+00
