ba8 si16                                
   1.00000000000000     
    24.0094680786000012    0.0000000000000000    0.0000000000000000
     0.0000000000000000    6.7778496741999996    0.0000000000000000
     0.0000000000000000    0.0000000000000000   11.6021432877000006
   Ba   Si
     8    16
Selective dynamics
Direct
  0.0056936146836932  0.2500000000663931  0.7068308185747403   F   T   T
  0.3487277360993559  0.7500000176088264  0.2931691814511165   F   T   T
  0.1819296202106742  0.7500000176088264  0.1872483419212013   F   T   T
  0.1724917293228714  0.2500000000663931  0.8127516375050126   F   T   T
  0.0597801408303269  0.7500000176088264  0.9264882854396255   F   T   T
  0.2946412087448635  0.2500000000663931  0.0735116939865883   F   T   T
  0.1278430928145298  0.2500000000663931  0.4051268879207769   F   T   T
  0.2265782567190158  0.7500000176088264  0.5948731532181695   F   T   T
  0.0728991332615152  0.0737728559198083  0.1562584865277853   F   T   T
  0.2815222163136823  0.9262271351983153  0.8437414929846248   F   T   T
  0.1147241003833415  0.9259760241906878  0.6555891409567876   F   T   T
  0.2396972491502041  0.0740239669274357  0.3444108590690692   F   T   T
  0.2815222163136823  0.5737728647574178  0.8437414929846248   F   T   T
  0.0728991332615152  0.4262271352130732  0.1562584865277853   F   T   T
  0.2396972491502041  0.4259760242054456  0.3444108590690692   F   T   T
  0.1147241003833415  0.5740239757650454  0.6555891409567876   F   T   T
  0.0311098080788312  0.7500000176088264  0.5991263562504515   F   T   T
  0.3233115340409753  0.2500000000663931  0.4008736436892165   F   T   T
  0.1565134280650469  0.2500000000663931  0.0964810694739997   F   T   T
  0.1979079314229040  0.7500000176088264  0.9035189099522138   F   T   T
  0.0741839757202953  0.2500000000663931  0.9776600449759534   F   T   T
  0.2802373688985256  0.7500000176088264  0.0223399703918922   F   T   T
  0.1134392529681918  0.7500000176088264  0.4746691071260544   F   T   T
  0.2409820965653537  0.2500000000663931  0.5253308106736158   F   T   T
 
  0.00000000E+00  0.00000000E+00  0.00000000E+00
  0.00000000E+00  0.00000000E+00  0.00000000E+00
  0.00000000E+00  0.00000000E+00  0.00000000E+00
  0.00000000E+00  0.00000000E+00  0.00000000E+00
  0.00000000E+00  0.00000000E+00  0.00000000E+00
  0.00000000E+00  0.00000000E+00  0.00000000E+00
  0.00000000E+00  0.00000000E+00  0.00000000E+00
  0.00000000E+00  0.00000000E+00  0.00000000E+00
  0.00000000E+00  0.00000000E+00  0.00000000E+00
  0.00000000E+00  0.00000000E+00  0.00000000E+00
  0.00000000E+00  0.00000000E+00  0.00000000E+00
  0.00000000E+00  0.00000000E+00  0.00000000E+00
  0.00000000E+00  0.00000000E+00  0.00000000E+00
  0.00000000E+00  0.00000000E+00  0.00000000E+00
  0.00000000E+00  0.00000000E+00  0.00000000E+00
  0.00000000E+00  0.00000000E+00  0.00000000E+00
  0.00000000E+00  0.00000000E+00  0.00000000E+00
  0.00000000E+00  0.00000000E+00  0.00000000E+00
  0.00000000E+00  0.00000000E+00  0.00000000E+00
  0.00000000E+00  0.00000000E+00  0.00000000E+00
  0.00000000E+00  0.00000000E+00  0.00000000E+00
  0.00000000E+00  0.00000000E+00  0.00000000E+00
  0.00000000E+00  0.00000000E+00  0.00000000E+00
  0.00000000E+00  0.00000000E+00  0.00000000E+00
