ba8 si16                                
   1.00000000000000     
    24.0094680786000012    0.0000000000000000    0.0000000000000000
     0.0000000000000000    6.7778496741999996    0.0000000000000000
     0.0000000000000000    0.0000000000000000   11.6021432877000006
   Ba   Si
     8    16
Selective dynamics
Direct
  0.0056936146836932  0.2500000000663931  0.7039946665532623   F   T   T
  0.3445627125481252  0.7500000176088264  0.2960053334725945   F   T   T
  0.1819296202106742  0.7500000176088264  0.1874025748066412   F   T   T
  0.1683267057716336  0.2500000000663931  0.8125974046195726   F   T   T
  0.0597801408303269  0.7500000176088264  0.9290003054690347   F   T   T
  0.2904761851936328  0.2500000000663931  0.0709996739571790   F   T   T
  0.1278430928145298  0.2500000000663931  0.4080871514029741   F   T   T
  0.2224132331677779  0.7500000176088264  0.5919128897359723   F   T   T
  0.0728991332615152  0.0738105067069556  0.1603668716884514   F   T   T
  0.2773571927624445  0.9261894844111678  0.8396331078239585   F   T   T
  0.1147241003833415  0.9261558334507054  0.6533993587770625   F   T   T
  0.2355322255989662  0.0738441576674184  0.3466006412487941   F   T   T
  0.2773571927624445  0.5738105155445654  0.8396331078239585   F   T   T
  0.0728991332615152  0.4261894844259256  0.1603668716884514   F   T   T
  0.2355322255989662  0.4261558334654631  0.3466006412487941   F   T   T
  0.1147241003833415  0.5738441665050278  0.6533993587770625   F   T   T
  0.0311098080788312  0.7500000176088264  0.5964771356436294   F   T   T
  0.3191465104897375  0.2500000000663931  0.4035228642960378   F   T   T
  0.1565134280650469  0.2500000000663931  0.0999059737993635   F   T   T
  0.1937429078716733  0.7500000176088264  0.9000940056268503   F   T   T
  0.0741839757202953  0.2500000000663931  0.9820956556448163   F   T   T
  0.2760723453472878  0.7500000176088264  0.0179043597230291   F   T   T
  0.1134392529681918  0.7500000176088264  0.4718222080494336   F   T   T
  0.2368170730141230  0.2500000000663931  0.5281777097502364   F   T   T
 
  0.00000000E+00  0.00000000E+00  0.00000000E+00
  0.00000000E+00  0.00000000E+00  0.00000000E+00
  0.00000000E+00  0.00000000E+00  0.00000000E+00
  0.00000000E+00  0.00000000E+00  0.00000000E+00
  0.00000000E+00  0.00000000E+00  0.00000000E+00
  0.00000000E+00  0.00000000E+00  0.00000000E+00
  0.00000000E+00  0.00000000E+00  0.00000000E+00
  0.00000000E+00  0.00000000E+00  0.00000000E+00
  0.00000000E+00  0.00000000E+00  0.00000000E+00
  0.00000000E+00  0.00000000E+00  0.00000000E+00
  0.00000000E+00  0.00000000E+00  0.00000000E+00
  0.00000000E+00  0.00000000E+00  0.00000000E+00
  0.00000000E+00  0.00000000E+00  0.00000000E+00
  0.00000000E+00  0.00000000E+00  0.00000000E+00
  0.00000000E+00  0.00000000E+00  0.00000000E+00
  0.00000000E+00  0.00000000E+00  0.00000000E+00
  0.00000000E+00  0.00000000E+00  0.00000000E+00
  0.00000000E+00  0.00000000E+00  0.00000000E+00
  0.00000000E+00  0.00000000E+00  0.00000000E+00
  0.00000000E+00  0.00000000E+00  0.00000000E+00
  0.00000000E+00  0.00000000E+00  0.00000000E+00
  0.00000000E+00  0.00000000E+00  0.00000000E+00
  0.00000000E+00  0.00000000E+00  0.00000000E+00
  0.00000000E+00  0.00000000E+00  0.00000000E+00
