ba8 si16                                
   1.00000000000000     
    24.0094680786000012    0.0000000000000000    0.0000000000000000
     0.0000000000000000    6.7778496741999996    0.0000000000000000
     0.0000000000000000    0.0000000000000000   11.6021432877000006
   Ba   Si
     8    16
Selective dynamics
Direct
  0.0056936146836932  0.2500000000663931  0.7095711572137540   F   T   T
  0.3528927596505937  0.7500000176088264  0.2904288428121031   F   T   T
  0.1819296202106742  0.7500000176088264  0.1869320670122606   F   T   T
  0.1766567528741092  0.2500000000663931  0.8130679124139530   F   T   T
  0.0597801408303269  0.7500000176088264  0.9244233357992135   F   T   T
  0.2988062322961014  0.2500000000663931  0.0755766436270000   F   T   T
  0.1278430928145298  0.2500000000663931  0.4024855432351999   F   T   T
  0.2307432802702465  0.7500000176088264  0.5975144979037467   F   T   T
  0.0728991332615152  0.0737611670483860  0.1527501060512958   F   T   T
  0.2856872398649131  0.9262388240697369  0.8472498734611137   F   T   T
  0.1147241003833415  0.9259232833261573  0.6578117062053219   F   T   T
  0.2438622727014348  0.0740767077919658  0.3421882938205352   F   T   T
  0.2856872398649131  0.5737611758859963  0.8472498734611137   F   T   T
  0.0728991332615152  0.4262388240844953  0.1527501060512958   F   T   T
  0.2438622727014348  0.4259232833409156  0.3421882938205352   F   T   T
  0.1147241003833415  0.5740767166295759  0.6578117062053219   F   T   T
  0.0311098080788312  0.7500000176088264  0.6013068289476772   F   T   T
  0.3274765575922132  0.2500000000663931  0.3986931709919908   F   T   T
  0.1565134280650469  0.2500000000663931  0.0937484232133953   F   T   T
  0.2020729549741418  0.7500000176088264  0.9062515562128185   F   T   T
  0.0741839757202953  0.2500000000663931  0.9738491560732141   F   T   T
  0.2844023924497634  0.7500000176088264  0.0261508592946317   F   T   T
  0.1134392529681918  0.7500000176088264  0.4770665762671695   F   T   T
  0.2451471201165916  0.2500000000663931  0.5229333415325000   F   T   T
 
  0.00000000E+00  0.00000000E+00  0.00000000E+00
  0.00000000E+00  0.00000000E+00  0.00000000E+00
  0.00000000E+00  0.00000000E+00  0.00000000E+00
  0.00000000E+00  0.00000000E+00  0.00000000E+00
  0.00000000E+00  0.00000000E+00  0.00000000E+00
  0.00000000E+00  0.00000000E+00  0.00000000E+00
  0.00000000E+00  0.00000000E+00  0.00000000E+00
  0.00000000E+00  0.00000000E+00  0.00000000E+00
  0.00000000E+00  0.00000000E+00  0.00000000E+00
  0.00000000E+00  0.00000000E+00  0.00000000E+00
  0.00000000E+00  0.00000000E+00  0.00000000E+00
  0.00000000E+00  0.00000000E+00  0.00000000E+00
  0.00000000E+00  0.00000000E+00  0.00000000E+00
  0.00000000E+00  0.00000000E+00  0.00000000E+00
  0.00000000E+00  0.00000000E+00  0.00000000E+00
  0.00000000E+00  0.00000000E+00  0.00000000E+00
  0.00000000E+00  0.00000000E+00  0.00000000E+00
  0.00000000E+00  0.00000000E+00  0.00000000E+00
  0.00000000E+00  0.00000000E+00  0.00000000E+00
  0.00000000E+00  0.00000000E+00  0.00000000E+00
  0.00000000E+00  0.00000000E+00  0.00000000E+00
  0.00000000E+00  0.00000000E+00  0.00000000E+00
  0.00000000E+00  0.00000000E+00  0.00000000E+00
  0.00000000E+00  0.00000000E+00  0.00000000E+00
