ba8 si16                                
   1.00000000000000     
    24.0094680786000012    0.0000000000000000    0.0000000000000000
     0.0000000000000000    6.7778496741999996    0.0000000000000000
     0.0000000000000000    0.0000000000000000   11.6021432877000006
   Ba   Si
     8    16
Selective dynamics
Direct
  0.0056936146836932  0.2500000000663931  0.6864278328575711   F   T   T
  0.3362326654456496  0.7500000176088264  0.3135721671682852   F   T   T
  0.1819296202106742  0.7500000176088264  0.1871858855422886   F   T   T
  0.1599966586691650  0.2500000000663931  0.8128140938839253   F   T   T
  0.0597801408303269  0.7500000176088264  0.9414937337920171   F   T   T
  0.2821461380911643  0.2500000000663931  0.0585062456341972   F   T   T
  0.1278430928145298  0.2500000000663931  0.4175743317292643   F   T   T
  0.2140831860653094  0.7500000176088264  0.5824257094096819   F   T   T
  0.0728991332615152  0.0739659506913606  0.1727825481989083   F   T   T
  0.2690271456599760  0.9260340404267626  0.8272174313135011   F   T   T
  0.1147241003833415  0.9269427739599058  0.6477840698453877   F   T   T
  0.2272021784964977  0.0730572171582175  0.3522159301804688   F   T   T
  0.2690271456599760  0.5739659595289706  0.8272174313135011   F   T   T
  0.0728991332615152  0.4260340404415209  0.1727825481989083   F   T   T
  0.2272021784964977  0.4269427739746637  0.3522159301804688   F   T   T
  0.1147241003833415  0.5730572259958274  0.6477840698453877   F   T   T
  0.0311098080788312  0.7500000176088264  0.5871355327514483   F   T   T
  0.3108164633872690  0.2500000000663931  0.4128644671882195   F   T   T
  0.1565134280650469  0.2500000000663931  0.1105167816296143   F   T   T
  0.1854128607691976  0.7500000176088264  0.8894831977965997   F   T   T
  0.0741839757202953  0.2500000000663931  0.9949538941255516   F   T   T
  0.2677422982448192  0.7500000176088264  0.0050461212422942   F   T   T
  0.1134392529681918  0.7500000176088264  0.4626045918440498   F   T   T
  0.2284870259116474  0.2500000000663931  0.5373953259556200   F   T   T
 
  0.00000000E+00  0.00000000E+00  0.00000000E+00
  0.00000000E+00  0.00000000E+00  0.00000000E+00
  0.00000000E+00  0.00000000E+00  0.00000000E+00
  0.00000000E+00  0.00000000E+00  0.00000000E+00
  0.00000000E+00  0.00000000E+00  0.00000000E+00
  0.00000000E+00  0.00000000E+00  0.00000000E+00
  0.00000000E+00  0.00000000E+00  0.00000000E+00
  0.00000000E+00  0.00000000E+00  0.00000000E+00
  0.00000000E+00  0.00000000E+00  0.00000000E+00
  0.00000000E+00  0.00000000E+00  0.00000000E+00
  0.00000000E+00  0.00000000E+00  0.00000000E+00
  0.00000000E+00  0.00000000E+00  0.00000000E+00
  0.00000000E+00  0.00000000E+00  0.00000000E+00
  0.00000000E+00  0.00000000E+00  0.00000000E+00
  0.00000000E+00  0.00000000E+00  0.00000000E+00
  0.00000000E+00  0.00000000E+00  0.00000000E+00
  0.00000000E+00  0.00000000E+00  0.00000000E+00
  0.00000000E+00  0.00000000E+00  0.00000000E+00
  0.00000000E+00  0.00000000E+00  0.00000000E+00
  0.00000000E+00  0.00000000E+00  0.00000000E+00
  0.00000000E+00  0.00000000E+00  0.00000000E+00
  0.00000000E+00  0.00000000E+00  0.00000000E+00
  0.00000000E+00  0.00000000E+00  0.00000000E+00
  0.00000000E+00  0.00000000E+00  0.00000000E+00
