ba8 si16                                
   1.00000000000000     
    24.0094680786000012    0.0000000000000000    0.0000000000000000
     0.0000000000000000    6.7778496741999996    0.0000000000000000
     0.0000000000000000    0.0000000000000000   11.6021432877000006
   Ba   Si
     8    16
Selective dynamics
Direct
  0.0056936146836932  0.2500000000663931  0.6087635796624343   F   T   T
  0.3279026183431810  0.7500000176088264  0.3912364203634229   F   T   T
  0.1819296202106742  0.7500000176088264  0.1864751074452122   F   T   T
  0.1516666115666965  0.2500000000663931  0.8135248719810018   F   T   T
  0.0597801408303269  0.7500000176088264  0.9696179683754196   F   T   T
  0.2738160909886886  0.2500000000663931  0.0303820110507944   F   T   T
  0.1278430928145298  0.2500000000663931  0.4303464566940955   F   T   T
  0.2057531389628409  0.7500000176088264  0.5696535844448516   F   T   T
  0.0728991332615152  0.0737193390934435  0.1939367414777125   F   T   T
  0.2606970985575003  0.9262806520246802  0.8060632380346967   F   T   T
  0.1147241003833415  0.9293409447697214  0.6397518913879982   F   T   T
  0.2188721313940221  0.0706590463484019  0.3602481086378584   F   T   T
  0.2606970985575003  0.5737193479310529  0.8060632380346967   F   T   T
  0.0728991332615152  0.4262806520394379  0.1939367414777124   F   T   T
  0.2188721313940221  0.4293409447844796  0.3602481086378584   F   T   T
  0.1147241003833415  0.5706590551860118  0.6397518913879982   F   T   T
  0.0311098080788312  0.7500000176088264  0.5676605780138809   F   T   T
  0.3024864162848004  0.2500000000663931  0.4323394219257872   F   T   T
  0.1565134280650469  0.2500000000663931  0.1349389727560387   F   T   T
  0.1770828136667291  0.7500000176088264  0.8650610066701756   F   T   T
  0.0741839757202953  0.2500000000663931  0.0158723337766510   F   T   T
  0.2594122511423507  0.7500000176088264 -0.0158723184088055   F   T   T
  0.1134392529681918  0.7500000176088264  0.4449322482609790   F   T   T
  0.2201569788091788  0.2500000000663931  0.5550676695386905   F   T   T
 
  0.00000000E+00  0.00000000E+00  0.00000000E+00
  0.00000000E+00  0.00000000E+00  0.00000000E+00
  0.00000000E+00  0.00000000E+00  0.00000000E+00
  0.00000000E+00  0.00000000E+00  0.00000000E+00
  0.00000000E+00  0.00000000E+00  0.00000000E+00
  0.00000000E+00  0.00000000E+00  0.00000000E+00
  0.00000000E+00  0.00000000E+00  0.00000000E+00
  0.00000000E+00  0.00000000E+00  0.00000000E+00
  0.00000000E+00  0.00000000E+00  0.00000000E+00
  0.00000000E+00  0.00000000E+00  0.00000000E+00
  0.00000000E+00  0.00000000E+00  0.00000000E+00
  0.00000000E+00  0.00000000E+00  0.00000000E+00
  0.00000000E+00  0.00000000E+00  0.00000000E+00
  0.00000000E+00  0.00000000E+00  0.00000000E+00
  0.00000000E+00  0.00000000E+00  0.00000000E+00
  0.00000000E+00  0.00000000E+00  0.00000000E+00
  0.00000000E+00  0.00000000E+00  0.00000000E+00
  0.00000000E+00  0.00000000E+00  0.00000000E+00
  0.00000000E+00  0.00000000E+00  0.00000000E+00
  0.00000000E+00  0.00000000E+00  0.00000000E+00
  0.00000000E+00  0.00000000E+00  0.00000000E+00
  0.00000000E+00  0.00000000E+00  0.00000000E+00
  0.00000000E+00  0.00000000E+00  0.00000000E+00
  0.00000000E+00  0.00000000E+00  0.00000000E+00
