ba8 si16                                
   1.00000000000000     
    24.0094680786000012    0.0000000000000000    0.0000000000000000
     0.0000000000000000    6.7778496741999996    0.0000000000000000
     0.0000000000000000    0.0000000000000000   11.6021432877000006
   Ba   Si
     8    16
Selective dynamics
Direct
  0.0056936146836932  0.2500000000663931  0.7099975256414689   F   T   T
  0.3570577832018316  0.7500000176088264  0.2900024743843878   F   T   T
  0.1819296202106742  0.7500000176088264  0.1868533005537736   F   T   T
  0.1808217764253399  0.2500000000663931  0.8131466788724397   F   T   T
  0.0597801408303269  0.7500000176088264  0.9226410855148760   F   T   T
  0.3029712558473392  0.2500000000663931  0.0773588939113374   F   T   T
  0.1278430928145298  0.2500000000663931  0.4001574478009490   F   T   T
  0.2349083038214843  0.7500000176088264  0.5998425933379974   F   T   T
  0.0728991332615152  0.0737713028963740  0.1498622061684368   F   T   T
  0.2898522634161509  0.9262286882217493  0.8501377733439726   F   T   T
  0.1147241003833415  0.9261560561693950  0.6586607241641200   F   T   T
  0.2480272962526726  0.0738439349487287  0.3413392758617366   F   T   T
  0.2898522634161509  0.5737713117339839  0.8501377733439726   F   T   T
  0.0728991332615152  0.4262286882365074  0.1498622061684368   F   T   T
  0.2480272962526726  0.4261560561841527  0.3413392758617366   F   T   T
  0.1147241003833415  0.5738439437863382  0.6586607241641200   F   T   T
  0.0311098080788312  0.7500000176088264  0.6025102337682897   F   T   T
  0.3316415811434439  0.2500000000663931  0.3974897661713783   F   T   T
  0.1565134280650469  0.2500000000663931  0.0912136723536956   F   T   T
  0.2062379785253725  0.7500000176088264  0.9087863070725184   F   T   T
  0.0741839757202953  0.2500000000663931  0.9705406485964668   F   T   T
  0.2885674160009941  0.7500000176088264  0.0294593667713794   F   T   T
  0.1134392529681918  0.7500000176088264  0.4780511507122188   F   T   T
  0.2493121436678223  0.2500000000663931  0.5219487670874509   F   T   T
 
  0.00000000E+00  0.00000000E+00  0.00000000E+00
  0.00000000E+00  0.00000000E+00  0.00000000E+00
  0.00000000E+00  0.00000000E+00  0.00000000E+00
  0.00000000E+00  0.00000000E+00  0.00000000E+00
  0.00000000E+00  0.00000000E+00  0.00000000E+00
  0.00000000E+00  0.00000000E+00  0.00000000E+00
  0.00000000E+00  0.00000000E+00  0.00000000E+00
  0.00000000E+00  0.00000000E+00  0.00000000E+00
  0.00000000E+00  0.00000000E+00  0.00000000E+00
  0.00000000E+00  0.00000000E+00  0.00000000E+00
  0.00000000E+00  0.00000000E+00  0.00000000E+00
  0.00000000E+00  0.00000000E+00  0.00000000E+00
  0.00000000E+00  0.00000000E+00  0.00000000E+00
  0.00000000E+00  0.00000000E+00  0.00000000E+00
  0.00000000E+00  0.00000000E+00  0.00000000E+00
  0.00000000E+00  0.00000000E+00  0.00000000E+00
  0.00000000E+00  0.00000000E+00  0.00000000E+00
  0.00000000E+00  0.00000000E+00  0.00000000E+00
  0.00000000E+00  0.00000000E+00  0.00000000E+00
  0.00000000E+00  0.00000000E+00  0.00000000E+00
  0.00000000E+00  0.00000000E+00  0.00000000E+00
  0.00000000E+00  0.00000000E+00  0.00000000E+00
  0.00000000E+00  0.00000000E+00  0.00000000E+00
  0.00000000E+00  0.00000000E+00  0.00000000E+00
