ba8 ge16                                
   1.00000000000000     
     9.1707817022789957   -0.0000000000000000    0.0000000000000000
     0.0000000000000000    6.8728596546865637    0.0000000000000000
     0.0000000000000000    0.0000000000000000   11.6977166136760307
   Ba   Ge
     8    16
Direct
  0.0151003103206747  0.2500000000663931  0.6909086051666360
  0.9848996929425567  0.7500000176088264  0.3090913948592207
  0.4848996929758528  0.7500000176088264  0.1909085434409714
  0.5151003069575480  0.2500000000663931  0.8090914359852424
  0.1557783070106742  0.7500000176088264  0.9071273909264522
  0.8442216930337277  0.2500000000663931  0.0928725884997616
  0.3442216929560297  0.2500000000663931  0.4071274731397069
  0.6557783069773709  0.7500000176088264  0.5928725679992394
  0.1916336776171513  0.0604941717971017  0.1500290314009831
  0.8083663224272435  0.9395058193210217  0.8499709481114265
  0.3083663223495456  0.9395058193210217  0.6500290519273620
  0.6916336775838552  0.0604941717971017  0.3499709480984947
  0.8083663224272435  0.5604941806347115  0.8499709481114265
  0.1916336776171513  0.4395058193357797  0.1500290314009831
  0.6916336775838552  0.4395058193357797  0.3499709480984947
  0.3083663223495456  0.5604941806347115  0.6500290519273620
  0.0720515689330818  0.7500000176088264  0.5935874923450176
  0.9279484112433303  0.2500000000663931  0.4064125075946500
  0.4279484376932833  0.2500000000663931  0.0935874307055419
  0.5720515887677684  0.7500000176088264  0.9064125487206719
  0.1939763503417961  0.2500000000663931  0.9573467686177415
  0.8060236364942773  0.7500000176088264  0.0426532467501042
  0.3060236364165791  0.7500000176088264  0.4573466864648187
  0.6939763635168213  0.2500000000663931  0.5426532313348511
 
  0.00000000E+00  0.00000000E+00  0.00000000E+00
  0.00000000E+00  0.00000000E+00  0.00000000E+00
  0.00000000E+00  0.00000000E+00  0.00000000E+00
  0.00000000E+00  0.00000000E+00  0.00000000E+00
  0.00000000E+00  0.00000000E+00  0.00000000E+00
  0.00000000E+00  0.00000000E+00  0.00000000E+00
  0.00000000E+00  0.00000000E+00  0.00000000E+00
  0.00000000E+00  0.00000000E+00  0.00000000E+00
  0.00000000E+00  0.00000000E+00  0.00000000E+00
  0.00000000E+00  0.00000000E+00  0.00000000E+00
  0.00000000E+00  0.00000000E+00  0.00000000E+00
  0.00000000E+00  0.00000000E+00  0.00000000E+00
  0.00000000E+00  0.00000000E+00  0.00000000E+00
  0.00000000E+00  0.00000000E+00  0.00000000E+00
  0.00000000E+00  0.00000000E+00  0.00000000E+00
  0.00000000E+00  0.00000000E+00  0.00000000E+00
  0.00000000E+00  0.00000000E+00  0.00000000E+00
  0.00000000E+00  0.00000000E+00  0.00000000E+00
  0.00000000E+00  0.00000000E+00  0.00000000E+00
  0.00000000E+00  0.00000000E+00  0.00000000E+00
  0.00000000E+00  0.00000000E+00  0.00000000E+00
  0.00000000E+00  0.00000000E+00  0.00000000E+00
  0.00000000E+00  0.00000000E+00  0.00000000E+00
  0.00000000E+00  0.00000000E+00  0.00000000E+00
