k-points along high symmetry lines
 20       ! # of points per line
Line-mode
reciprocal
  0.000  0.000  0.000  \Gamma
  0.000  0.500  0.000  Y

  0.000  0.500  0.000  Y
  0.000  0.500  0.500  T

  0.000  0.500  0.500  T
  0.000  0.000  0.500  Z

  0.000  0.000  0.500  Z
  0.000  0.000  0.000  \Gamma

  0.000  0.000  0.000  \Gamma
  0.500  0.000  0.000  X
