ba8 si16                                
   1.00000000000000     
    64.0565214665323879    0.0000000000000000    0.0000000000000000
     0.0000000000000000    6.6941522070943558    0.0000000000000000
     0.0000000000000000    0.0000000000000000   11.4606623433361463
   Ba   Si
    44    88
Direct
  0.0051246329976620  0.2500000000663931  0.7009499872156766
  0.1419658573823019  0.2500000000663931  0.6904669330579268
  0.2814122652129679  0.2500000000663931  0.6913433044039439
  0.4209556181575297  0.2500000000663931  0.6914945749794689
  0.5605041849345098  0.2500000000663931  0.6910774021674180
  0.7016613050287700  0.2500000000663931  0.6928983968669886
  0.1373408430698863  0.7500000176088264  0.3081309082037296
  0.2769159058889742  0.7500000176088264  0.3086280896164983
  0.4164920254659107  0.7500000176088264  0.3088260210781369
  0.5560631068313372  0.7500000176088264  0.3087570512978740
  0.6952826466327163  0.7500000176088264  0.3083831221233618
  0.0659681463050049  0.7500000176088264  0.1928983351413241
  0.2071253402621080  0.7500000176088264  0.1910773404417531
  0.3466738774970449  0.7500000176088264  0.1914945132538046
  0.4862172304416139  0.7500000176088264  0.1913432426782792
  0.6256636234935095  0.7500000176088264  0.1904668713322622
  0.7625048483428870  0.7500000176088264  0.2009499254900116
  0.0723468342430953  0.2500000000663931  0.8083831632493833
  0.2115663888232373  0.2500000000663931  0.8087570924238956
  0.3511374406311306  0.2500000000663931  0.8088260622041592
  0.4907135306660307  0.2500000000663931  0.8086281307425196
  0.6302886082483993  0.2500000000663931  0.8081309493297517
  0.0299287409988551  0.7500000176088264  0.9120678001974137
  0.1622705089868069  0.7500000176088264  0.9058123728455574
  0.3016137850496954  0.7500000176088264  0.9060678609724833
  0.4410708259166746  0.7500000176088264  0.9060230727320555
  0.5806103720887854  0.7500000176088264  0.9050792679373298
  0.7193609483710741  0.7500000176088264  0.8956356306717919
  0.1166040324525270  0.2500000000663931  0.0931278077757108
  0.2566880974584612  0.2500000000663931  0.0940315849896494
  0.3962982029007033  0.2500000000663931  0.0939679005867218
  0.5358172861597611  0.2500000000663931  0.0938927624909058
  0.6751032757450839  0.2500000000663931  0.0951397404931433
  0.0482684881839309  0.2500000000663931  0.3956357128850467
  0.1870191235657965  0.2500000000663931  0.4050793501505849
  0.3265586401958636  0.2500000000663931  0.4060231549453100
  0.4660157106048792  0.2500000000663931  0.4060679431857381
  0.6053589866677674  0.2500000000663931  0.4058124550588120
  0.7377006955561497  0.2500000000663931  0.4120678824106684
  0.0925261608099211  0.7500000176088264  0.5951397199926213
  0.2318121651740073  0.7500000176088264  0.5938927419903837
  0.3713312631963451  0.7500000176088264  0.5939678800861998
  0.5109413981806236  0.7500000176088264  0.5940315644891273
  0.6510254558126730  0.7500000176088264  0.5931277872751889
  0.0253203335145471  0.0713508021559338  0.1454887893270161
  0.1662182389520936  0.0701073126847605  0.1458531620782386
  0.3059328976610682  0.0701311990989017  0.1465130126367650
  0.4454976440219270  0.0701056656953470  0.1463332856487609
  0.5850102713876382  0.0700726428315765  0.1453942906249844
  0.7242568738240523  0.0712409148119101  0.1418958689915486
  0.1134678088196249  0.9302690178116514  0.8541599618610982
  0.2523794606356643  0.9298854453152855  0.8536069113332158
  0.3918742771472112  0.9298756896572735  0.8537306411730501
  0.5314165559362063  0.9299080006296073  0.8536995672764468
  0.6711375266718026  0.9305864306227623  0.8531156400763273
  0.0433725553415712  0.9287590763062135  0.6418958895179280
  0.1826192242669434  0.9299273482865472  0.6453943111513633
  0.3221318220751214  0.9298943254227765  0.6463333061751401
  0.4616965979935064  0.9298687920192220  0.6465130331631440
  0.6014112714657545  0.9298926784333629  0.6458531826046175
  0.7423091104298469  0.9286491889621895  0.6454888098533951
  0.0964919172725836  0.0694135604953612  0.3531156400633955
  0.2362128953975621  0.0700919904885160  0.3536995672635151
  0.3757551889653270  0.0701243014608501  0.3537306411601183
  0.5152500350189108  0.0701145458028379  0.3536069113202837
  0.6541616720561937  0.0697309733064721  0.3541599618481662
  0.1134678088196249  0.5697309821440818  0.8541599618610982
  0.2523794606356643  0.5701145546404477  0.8536069113332158
  0.3918742771472112  0.5701243102984597  0.8537306411730501
  0.5314165559362063  0.5700919993261259  0.8536995672764468
  0.6711375266718026  0.5694135693329709  0.8531156400763273
  0.0253203335145471  0.4286491889769479  0.1454887893270161
  0.1662182389520936  0.4298926784481210  0.1458531620782386
  0.3059328976610682  0.4298687920339798  0.1465130126367650
  0.4454976440219270  0.4298943254375343  0.1463332856487609
  0.5850102713876382  0.4299273483013048  0.1453942906249844
  0.7242568738240523  0.4287590763209713  0.1418958689915486
  0.0964919172725836  0.4305864306375204  0.3531156400633955
  0.2362128953975621  0.4299080006443654  0.3536995672635151
  0.3757551889653270  0.4298756896720312  0.3537306411601183
  0.5152500350189108  0.4298854453300436  0.3536069113202837
  0.6541616720561937  0.4302690178264091  0.3541599618481662
  0.0433725553415712  0.5712409236495197  0.6418958895179280
  0.1826192242669434  0.5700726516691860  0.6453943111513633
  0.3221318220751214  0.5701056745329567  0.6463333061751401
  0.4616965979935064  0.5701312079365112  0.6465130331631440
  0.6014112714657545  0.5701073215223703  0.6458531826046175
  0.7423091104298469  0.5713508109935437  0.6454888098533951
  0.0103696293170625  0.7500000176088264  0.6180661506572216
  0.1512631015413218  0.7500000176088264  0.5911198970782843
  0.2907739511249366  0.7500000176088264  0.5917758268616397
  0.4303332946462350  0.7500000176088264  0.5919247067289559
  0.5700194060448377  0.7500000176088264  0.5916254344522137
  0.7103565443107934  0.7500000176088264  0.5826004613759447
  0.1277271799490777  0.2500000000663931  0.4081226911823451
  0.2675684641551746  0.2500000000663931  0.4083585350154864
  0.4071163843267646  0.2500000000663931  0.4083212094892308
  0.5465984799915875  0.2500000000663931  0.4080470687046695
  0.6852646796745581  0.2500000000663931  0.4089274955467722
  0.0572729070229816  0.2500000000663931  0.0826003997364693
  0.1976100600522107  0.2500000000663931  0.0916253728127378
  0.3372961714663032  0.2500000000663931  0.0919246450894800
  0.4768554854300683  0.2500000000663931  0.0917757652221642
  0.6163663793344898  0.2500000000663931  0.0911198354388084
  0.7572597897017120  0.2500000000663931  0.1180660890177461
  0.0823648012012536  0.7500000176088264  0.9089275366727939
  0.2210309861209509  0.7500000176088264  0.9080471098306914
  0.3605131113278172  0.7500000176088264  0.9083212506152524
  0.5000609723998309  0.7500000176088264  0.9083585761415084
  0.6399023304687769  0.7500000176088264  0.9081227323083672
  0.0255581098864547  0.2500000000663931  0.9627051866336548
  0.1668224513011291  0.2500000000663931  0.9639829279349071
  0.3064964787161295  0.2500000000663931  0.9645640333100493
  0.4460644285252223  0.2500000000663931  0.9643462889695157
  0.5855824110021054  0.2500000000663931  0.9634948814237344
  0.7314298368850362  0.2500000000663931  0.9616853316482471
  0.1124158173249076  0.7500000176088264  0.0369146029676194
  0.2518182558408382  0.7500000176088264  0.0355784954630126
  0.3913243683254070  0.7500000176088264  0.0357326675686607
  0.5308744575069092  0.7500000176088264  0.0357422109398003
  0.6706233852636134  0.7500000176088264  0.0353688087199257
  0.0361996070593503  0.7500000176088264  0.4616852494953245
  0.1820470994312395  0.7500000176088264  0.4634947992708117
  0.3215650375718190  0.7500000176088264  0.4643462068165931
  0.4611330169384523  0.7500000176088264  0.4645639511571265
  0.6008070443534458  0.7500000176088264  0.4639828457819848
  0.7420713765352707  0.7500000176088264  0.4627051044807317
  0.0970061029860899  0.2500000000663931  0.5353687933046728
  0.2367550233689021  0.2500000000663931  0.5357421955245475
  0.3763051273136778  0.2500000000663931  0.5357326521534075
  0.5158112102717004  0.2500000000663931  0.5355784800477593
  0.6552136930929476  0.2500000000663931  0.5369145875523665
 
  0.00000000E+00  0.00000000E+00  0.00000000E+00
  0.00000000E+00  0.00000000E+00  0.00000000E+00
  0.00000000E+00  0.00000000E+00  0.00000000E+00
  0.00000000E+00  0.00000000E+00  0.00000000E+00
  0.00000000E+00  0.00000000E+00  0.00000000E+00
  0.00000000E+00  0.00000000E+00  0.00000000E+00
  0.00000000E+00  0.00000000E+00  0.00000000E+00
  0.00000000E+00  0.00000000E+00  0.00000000E+00
  0.00000000E+00  0.00000000E+00  0.00000000E+00
  0.00000000E+00  0.00000000E+00  0.00000000E+00
  0.00000000E+00  0.00000000E+00  0.00000000E+00
  0.00000000E+00  0.00000000E+00  0.00000000E+00
  0.00000000E+00  0.00000000E+00  0.00000000E+00
  0.00000000E+00  0.00000000E+00  0.00000000E+00
  0.00000000E+00  0.00000000E+00  0.00000000E+00
  0.00000000E+00  0.00000000E+00  0.00000000E+00
  0.00000000E+00  0.00000000E+00  0.00000000E+00
  0.00000000E+00  0.00000000E+00  0.00000000E+00
  0.00000000E+00  0.00000000E+00  0.00000000E+00
  0.00000000E+00  0.00000000E+00  0.00000000E+00
  0.00000000E+00  0.00000000E+00  0.00000000E+00
  0.00000000E+00  0.00000000E+00  0.00000000E+00
  0.00000000E+00  0.00000000E+00  0.00000000E+00
  0.00000000E+00  0.00000000E+00  0.00000000E+00
  0.00000000E+00  0.00000000E+00  0.00000000E+00
  0.00000000E+00  0.00000000E+00  0.00000000E+00
  0.00000000E+00  0.00000000E+00  0.00000000E+00
  0.00000000E+00  0.00000000E+00  0.00000000E+00
  0.00000000E+00  0.00000000E+00  0.00000000E+00
  0.00000000E+00  0.00000000E+00  0.00000000E+00
  0.00000000E+00  0.00000000E+00  0.00000000E+00
  0.00000000E+00  0.00000000E+00  0.00000000E+00
  0.00000000E+00  0.00000000E+00  0.00000000E+00
  0.00000000E+00  0.00000000E+00  0.00000000E+00
  0.00000000E+00  0.00000000E+00  0.00000000E+00
  0.00000000E+00  0.00000000E+00  0.00000000E+00
  0.00000000E+00  0.00000000E+00  0.00000000E+00
  0.00000000E+00  0.00000000E+00  0.00000000E+00
  0.00000000E+00  0.00000000E+00  0.00000000E+00
  0.00000000E+00  0.00000000E+00  0.00000000E+00
  0.00000000E+00  0.00000000E+00  0.00000000E+00
  0.00000000E+00  0.00000000E+00  0.00000000E+00
  0.00000000E+00  0.00000000E+00  0.00000000E+00
  0.00000000E+00  0.00000000E+00  0.00000000E+00
  0.00000000E+00  0.00000000E+00  0.00000000E+00
  0.00000000E+00  0.00000000E+00  0.00000000E+00
  0.00000000E+00  0.00000000E+00  0.00000000E+00
  0.00000000E+00  0.00000000E+00  0.00000000E+00
  0.00000000E+00  0.00000000E+00  0.00000000E+00
  0.00000000E+00  0.00000000E+00  0.00000000E+00
  0.00000000E+00  0.00000000E+00  0.00000000E+00
  0.00000000E+00  0.00000000E+00  0.00000000E+00
  0.00000000E+00  0.00000000E+00  0.00000000E+00
  0.00000000E+00  0.00000000E+00  0.00000000E+00
  0.00000000E+00  0.00000000E+00  0.00000000E+00
  0.00000000E+00  0.00000000E+00  0.00000000E+00
  0.00000000E+00  0.00000000E+00  0.00000000E+00
  0.00000000E+00  0.00000000E+00  0.00000000E+00
  0.00000000E+00  0.00000000E+00  0.00000000E+00
  0.00000000E+00  0.00000000E+00  0.00000000E+00
  0.00000000E+00  0.00000000E+00  0.00000000E+00
  0.00000000E+00  0.00000000E+00  0.00000000E+00
  0.00000000E+00  0.00000000E+00  0.00000000E+00
  0.00000000E+00  0.00000000E+00  0.00000000E+00
  0.00000000E+00  0.00000000E+00  0.00000000E+00
  0.00000000E+00  0.00000000E+00  0.00000000E+00
  0.00000000E+00  0.00000000E+00  0.00000000E+00
  0.00000000E+00  0.00000000E+00  0.00000000E+00
  0.00000000E+00  0.00000000E+00  0.00000000E+00
  0.00000000E+00  0.00000000E+00  0.00000000E+00
  0.00000000E+00  0.00000000E+00  0.00000000E+00
  0.00000000E+00  0.00000000E+00  0.00000000E+00
  0.00000000E+00  0.00000000E+00  0.00000000E+00
  0.00000000E+00  0.00000000E+00  0.00000000E+00
  0.00000000E+00  0.00000000E+00  0.00000000E+00
  0.00000000E+00  0.00000000E+00  0.00000000E+00
  0.00000000E+00  0.00000000E+00  0.00000000E+00
  0.00000000E+00  0.00000000E+00  0.00000000E+00
  0.00000000E+00  0.00000000E+00  0.00000000E+00
  0.00000000E+00  0.00000000E+00  0.00000000E+00
  0.00000000E+00  0.00000000E+00  0.00000000E+00
  0.00000000E+00  0.00000000E+00  0.00000000E+00
  0.00000000E+00  0.00000000E+00  0.00000000E+00
  0.00000000E+00  0.00000000E+00  0.00000000E+00
  0.00000000E+00  0.00000000E+00  0.00000000E+00
  0.00000000E+00  0.00000000E+00  0.00000000E+00
  0.00000000E+00  0.00000000E+00  0.00000000E+00
  0.00000000E+00  0.00000000E+00  0.00000000E+00
  0.00000000E+00  0.00000000E+00  0.00000000E+00
  0.00000000E+00  0.00000000E+00  0.00000000E+00
  0.00000000E+00  0.00000000E+00  0.00000000E+00
  0.00000000E+00  0.00000000E+00  0.00000000E+00
  0.00000000E+00  0.00000000E+00  0.00000000E+00
  0.00000000E+00  0.00000000E+00  0.00000000E+00
  0.00000000E+00  0.00000000E+00  0.00000000E+00
  0.00000000E+00  0.00000000E+00  0.00000000E+00
  0.00000000E+00  0.00000000E+00  0.00000000E+00
  0.00000000E+00  0.00000000E+00  0.00000000E+00
  0.00000000E+00  0.00000000E+00  0.00000000E+00
  0.00000000E+00  0.00000000E+00  0.00000000E+00
  0.00000000E+00  0.00000000E+00  0.00000000E+00
  0.00000000E+00  0.00000000E+00  0.00000000E+00
  0.00000000E+00  0.00000000E+00  0.00000000E+00
  0.00000000E+00  0.00000000E+00  0.00000000E+00
  0.00000000E+00  0.00000000E+00  0.00000000E+00
  0.00000000E+00  0.00000000E+00  0.00000000E+00
  0.00000000E+00  0.00000000E+00  0.00000000E+00
  0.00000000E+00  0.00000000E+00  0.00000000E+00
  0.00000000E+00  0.00000000E+00  0.00000000E+00
  0.00000000E+00  0.00000000E+00  0.00000000E+00
  0.00000000E+00  0.00000000E+00  0.00000000E+00
  0.00000000E+00  0.00000000E+00  0.00000000E+00
  0.00000000E+00  0.00000000E+00  0.00000000E+00
  0.00000000E+00  0.00000000E+00  0.00000000E+00
  0.00000000E+00  0.00000000E+00  0.00000000E+00
  0.00000000E+00  0.00000000E+00  0.00000000E+00
  0.00000000E+00  0.00000000E+00  0.00000000E+00
  0.00000000E+00  0.00000000E+00  0.00000000E+00
  0.00000000E+00  0.00000000E+00  0.00000000E+00
  0.00000000E+00  0.00000000E+00  0.00000000E+00
  0.00000000E+00  0.00000000E+00  0.00000000E+00
  0.00000000E+00  0.00000000E+00  0.00000000E+00
  0.00000000E+00  0.00000000E+00  0.00000000E+00
  0.00000000E+00  0.00000000E+00  0.00000000E+00
  0.00000000E+00  0.00000000E+00  0.00000000E+00
  0.00000000E+00  0.00000000E+00  0.00000000E+00
  0.00000000E+00  0.00000000E+00  0.00000000E+00
  0.00000000E+00  0.00000000E+00  0.00000000E+00
  0.00000000E+00  0.00000000E+00  0.00000000E+00
  0.00000000E+00  0.00000000E+00  0.00000000E+00
  0.00000000E+00  0.00000000E+00  0.00000000E+00
  0.00000000E+00  0.00000000E+00  0.00000000E+00
