ba8 si16
1.0
       33.0189361572         0.0000000000         0.0000000000
        0.0000000000         6.7778496742         0.0000000000
        0.0000000000         0.0000000000        11.6021432877
   Ba   Si
   16   32
Cartesian
     0.136700660         1.694462419         8.020677567
    17.882236481         5.083387375         3.581465721
     4.368033409         5.083387375         2.219605207
     4.641434669         1.694462419         9.382537842
     9.146168709         1.694462419         8.020677567
     8.872767448         5.083387375         3.581465721
    13.377501488         5.083387375         2.219605207
    13.650902748         1.694462419         9.382537842
     1.435289383         5.083387375        10.519083023
    16.583646774         1.694462419         1.083060026
     3.069444656         1.694462419         4.718012333
     5.940023422         5.083387375         6.884131432
    10.444757462         5.083387375        10.519083023
     7.574178696         1.694462419         1.083060026
    12.078912735         1.694462419         4.718012333
    14.949491501         5.083387375         6.884131432
     1.750269413         0.491671979         1.702544928
    16.268667221         6.286177635         9.899598122
     2.754464626         6.286177635         7.503616810
     6.255003452         0.491671979         4.098526478
    16.268667221         3.880596876         9.899598122
     1.750269413         2.897252798         1.702544928
     6.255003452         2.897252798         4.098526478
     2.754464626         3.880596876         7.503616810
    10.759737968         0.491671979         1.702544928
     7.259198666         6.286177635         9.899598122
    11.763932228         6.286177635         7.503616810
    15.264472008         0.491671979         4.098526478
     7.259198666         3.880596876         9.899598122
    10.759737968         2.897252798         1.702544928
    15.264472008         2.897252798         4.098526478
    11.763932228         3.880596876         7.503616810
     0.746929944         5.083387375         6.868480682
    17.272005081         1.694462419         4.733662605
     3.757804155         1.694462419         1.067408323
     5.251664162         5.083387375        10.534734726
     9.756398201         5.083387375         6.868480682
     8.262537956         1.694462419         4.733662605
    12.767271996         1.694462419         1.067408323
    14.261132240         5.083387375        10.534734726
     1.781117797         1.694462419        11.218576431
    16.237817764         5.083387375         0.383567035
     2.723616123         5.083387375         5.417503834
     6.285851955         1.694462419         6.184638500
    10.790586472         1.694462419        11.218576431
     7.228350163         5.083387375         0.383567035
    11.733083725         5.083387375         5.417503834
    15.295320511         1.694462419         6.184638500
