ba8 si16
1.0
       19.5047340393         0.0000000000         0.0000000000
        0.0000000000         6.7778496742         0.0000000000
        0.0000000000         0.0000000000        11.6021432877
   Ba   Si
    4   8
Cartesian
0.1367006600	1.6944624190	8.0206775670
4.3680334090	5.0833873750	2.2196052070
1.4352893830	5.0833873750	10.5190830230
3.0694446560	1.6944624190	4.7180123330
1.7502694130	0.4916719790	1.7025449280
2.7544646260	6.2861776350	7.5036168100
1.7502694130	2.8972527980	1.7025449280
2.7544646260	3.8805968760	7.5036168100
0.7469299440	5.0833873750	6.8684806820
3.7578041550	1.6944624190	1.0674083230
1.7811177970	1.6944624190	11.2185764310
2.7236161230	5.0833873750	5.4175038340

