ba8 si16                                
   1.00000000000000     
    33.0189361572000024    0.0000000000000000    0.0000000000000000
     0.0000000000000000    6.6440629518983423    0.0000000000000000
     0.0000000000000000    0.0000000000000000   11.3876752935122489
   Ba   Si
    16    32
Direct
  0.0100710542052269  0.2599303976234211  0.7099746097752302
  0.5356442000723050  0.7602059019676943  0.3088587331995143
  0.1292818111130529  0.7600109749831887  0.2016946410592411
  0.1416199349336438  0.2603690067433746  0.8187499903601179
  0.2775384636314726  0.2601055914352841  0.6992979086680293
  0.2681767608449732  0.7600307081558313  0.3195354343067152
  0.4040952895428092  0.7597672928477408  0.2000833316270274
  0.4164334133634000  0.2601253246079267  0.8171386809279042
  0.0596033474604667  0.7601566209951827  0.9218176099753776
  0.4861118770159862  0.2599796785959327  0.0970157120117605
  0.0950090134181636  0.2599426667144655  0.4053217229934418
  0.1804231164323369  0.7599667290987142  0.6055894945620039
  0.3177604249346331  0.7598751975071636  0.9160635383936508
  0.2279547995721032  0.2602611020839518  0.1027697835934873
  0.3652921080441089  0.2601695704924012  0.4132438903001301
  0.4507062110582822  0.7601936328766499  0.6135116618686922
  0.0495138164889326  0.0799469404504976  0.1564123415443959
  0.4962014224337779  0.9401893320487602  0.8624209805305654
  0.0850209624270093  0.9400996824305636  0.6514231088622111
  0.1885839874750701  0.0781547845758794  0.3627391009449425
  0.4961740503110477  0.5802445090090416  0.8625059283122170
  0.0495411886116628  0.4398917725208378  0.1563273937627443
  0.1886131718359749  0.4416021480139918  0.3626225307969477
  0.0850098345369474  0.5798960558568282  0.6514572179434452
  0.3235072307311952  0.0781917833256500  0.1554022949086900
  0.2222080081915081  0.9419444891736077  0.8634310271662713
  0.3571312225551253  0.9419814879233783  0.6560942420298090
  0.4606942764956941  0.0800365900686941  0.3674102341125405
  0.2222136622754292  0.5792077688255262  0.8634476930315955
  0.3235015766472742  0.4409285127043532  0.1553856290433657
  0.4607054043857559  0.4402402256730511  0.3673761250313063
  0.3571020381942205  0.5785341335158876  0.6562108121778039
  0.0211041395209719  0.7599988306879126  0.6259628083898008
  0.5246110506721209  0.2601374689032028  0.3928705344971277
  0.1114695239723389  0.2596690231366452  0.0925473717805545
  0.1617162527018010  0.7604588622554047  0.9179033518616535
  0.2964645892349793  0.7601433257188432  0.6016193640249696
  0.2492506352414736  0.2599929738722722  0.4172139788619589
  0.3839989718049353  0.2596774373357107  0.1009299701254847
  0.4342457077120940  0.7604672764544702  0.9262859502065837
  0.0499158973919265  0.2597816054712396  0.9725069378687365
  0.4957993090342754  0.7603546941198758  0.0463264207369463
  0.0716246619417333  0.7599346614661044  0.4700258510153930
  0.1897752295528505  0.2599949978317042  0.5458123703041053
  0.3257944683223002  0.2595979721189181  0.9717348572061297
  0.2199207706306936  0.7605383274721973  0.0470985013995531
  0.3559399804773449  0.7601413017594112  0.4730208888958600
  0.4740905769809771  0.2602016381250110  0.5488074081845724
 
  0.00000000E+00  0.00000000E+00  0.00000000E+00
  0.00000000E+00  0.00000000E+00  0.00000000E+00
  0.00000000E+00  0.00000000E+00  0.00000000E+00
  0.00000000E+00  0.00000000E+00  0.00000000E+00
  0.00000000E+00  0.00000000E+00  0.00000000E+00
  0.00000000E+00  0.00000000E+00  0.00000000E+00
  0.00000000E+00  0.00000000E+00  0.00000000E+00
  0.00000000E+00  0.00000000E+00  0.00000000E+00
  0.00000000E+00  0.00000000E+00  0.00000000E+00
  0.00000000E+00  0.00000000E+00  0.00000000E+00
  0.00000000E+00  0.00000000E+00  0.00000000E+00
  0.00000000E+00  0.00000000E+00  0.00000000E+00
  0.00000000E+00  0.00000000E+00  0.00000000E+00
  0.00000000E+00  0.00000000E+00  0.00000000E+00
  0.00000000E+00  0.00000000E+00  0.00000000E+00
  0.00000000E+00  0.00000000E+00  0.00000000E+00
  0.00000000E+00  0.00000000E+00  0.00000000E+00
  0.00000000E+00  0.00000000E+00  0.00000000E+00
  0.00000000E+00  0.00000000E+00  0.00000000E+00
  0.00000000E+00  0.00000000E+00  0.00000000E+00
  0.00000000E+00  0.00000000E+00  0.00000000E+00
  0.00000000E+00  0.00000000E+00  0.00000000E+00
  0.00000000E+00  0.00000000E+00  0.00000000E+00
  0.00000000E+00  0.00000000E+00  0.00000000E+00
  0.00000000E+00  0.00000000E+00  0.00000000E+00
  0.00000000E+00  0.00000000E+00  0.00000000E+00
  0.00000000E+00  0.00000000E+00  0.00000000E+00
  0.00000000E+00  0.00000000E+00  0.00000000E+00
  0.00000000E+00  0.00000000E+00  0.00000000E+00
  0.00000000E+00  0.00000000E+00  0.00000000E+00
  0.00000000E+00  0.00000000E+00  0.00000000E+00
  0.00000000E+00  0.00000000E+00  0.00000000E+00
  0.00000000E+00  0.00000000E+00  0.00000000E+00
  0.00000000E+00  0.00000000E+00  0.00000000E+00
  0.00000000E+00  0.00000000E+00  0.00000000E+00
  0.00000000E+00  0.00000000E+00  0.00000000E+00
  0.00000000E+00  0.00000000E+00  0.00000000E+00
  0.00000000E+00  0.00000000E+00  0.00000000E+00
  0.00000000E+00  0.00000000E+00  0.00000000E+00
  0.00000000E+00  0.00000000E+00  0.00000000E+00
  0.00000000E+00  0.00000000E+00  0.00000000E+00
  0.00000000E+00  0.00000000E+00  0.00000000E+00
  0.00000000E+00  0.00000000E+00  0.00000000E+00
  0.00000000E+00  0.00000000E+00  0.00000000E+00
  0.00000000E+00  0.00000000E+00  0.00000000E+00
  0.00000000E+00  0.00000000E+00  0.00000000E+00
  0.00000000E+00  0.00000000E+00  0.00000000E+00
  0.00000000E+00  0.00000000E+00  0.00000000E+00
