ba8 si16                                
   1.00000000000000     
     8.7590116921012822   -0.0000000000000000    0.0000000000000000
    -0.0000000000000000    6.6041871498700724    0.0000000000000000
     0.0000000000000000    0.0000000000000000   11.2840173389510223
   Ba   Si
     8    16
Direct
  0.0167788234875933  0.2500000000663931  0.6904474954789026
  0.9832211797756381  0.7500000176088264  0.3095525045469540
  0.4832211798089342  0.7500000176088264  0.1904474337532382
  0.5167788201244667  0.2500000000663931  0.8095525456729757
  0.1617405837344725  0.7500000176088264  0.9062606655451093
  0.8382594163099292  0.2500000000663931  0.0937393138811042
  0.3382594162322316  0.2500000000663931  0.4062607477583647
  0.6617405837011695  0.7500000176088264  0.5937392933805823
  0.1907085331987056  0.0698262875351233  0.1470166175341420
  0.8092914668456890  0.9301737035830002  0.8529833619782677
  0.3092914667679913  0.9301737035830002  0.6470166380605208
  0.6907085331654097  0.0698262875351233  0.3529833619653358
  0.8092914668456890  0.5698262963727330  0.8529833619782677
  0.1907085331987056  0.4301737035977581  0.1470166175341420
  0.6907085331654097  0.4301737035977581  0.3529833619653358
  0.3092914667679913  0.5698262963727330  0.6470166380605208
  0.0823696774192056  0.7500000176088264  0.5931822149611498
  0.9176303027572060  0.2500000000663931  0.4068177849785179
  0.4176303292071595  0.2500000000663931  0.0931821533216741
  0.5823696972538926  0.7500000176088264  0.9068178261045398
  0.1953408037863803  0.2500000000663931  0.9643713335262313
  0.8046591830496925  0.7500000176088264  0.0356286818416143
  0.3046591829719950  0.7500000176088264  0.4643712513733088
  0.6953408169614061  0.2500000000663931  0.5356286664263613
 
  0.00000000E+00  0.00000000E+00  0.00000000E+00
  0.00000000E+00  0.00000000E+00  0.00000000E+00
  0.00000000E+00  0.00000000E+00  0.00000000E+00
  0.00000000E+00  0.00000000E+00  0.00000000E+00
  0.00000000E+00  0.00000000E+00  0.00000000E+00
  0.00000000E+00  0.00000000E+00  0.00000000E+00
  0.00000000E+00  0.00000000E+00  0.00000000E+00
  0.00000000E+00  0.00000000E+00  0.00000000E+00
  0.00000000E+00  0.00000000E+00  0.00000000E+00
  0.00000000E+00  0.00000000E+00  0.00000000E+00
  0.00000000E+00  0.00000000E+00  0.00000000E+00
  0.00000000E+00  0.00000000E+00  0.00000000E+00
  0.00000000E+00  0.00000000E+00  0.00000000E+00
  0.00000000E+00  0.00000000E+00  0.00000000E+00
  0.00000000E+00  0.00000000E+00  0.00000000E+00
  0.00000000E+00  0.00000000E+00  0.00000000E+00
  0.00000000E+00  0.00000000E+00  0.00000000E+00
  0.00000000E+00  0.00000000E+00  0.00000000E+00
  0.00000000E+00  0.00000000E+00  0.00000000E+00
  0.00000000E+00  0.00000000E+00  0.00000000E+00
  0.00000000E+00  0.00000000E+00  0.00000000E+00
  0.00000000E+00  0.00000000E+00  0.00000000E+00
  0.00000000E+00  0.00000000E+00  0.00000000E+00
  0.00000000E+00  0.00000000E+00  0.00000000E+00
