ba8 si8 c8                              
   1.00000000000000     
     8.6569061582908979   -0.0000000000000000    0.0000000000000000
    -0.0000000000000000    6.1329810248129935    0.0000000000000000
     0.0000000000000000    0.0000000000000000   11.3428474705926448
   Ba   Si   C 
     8     8     8
Direct
 -0.0250707501116012  0.2500000000663931  0.6588827397517101
  0.0250707533748327  0.7500000176088264  0.3411172602741470
  0.5250707534081285  0.7500000176088264  0.1588826780260452
  0.4749292465252720  0.2500000000663931  0.8411173014001683
  0.1259677285782112  0.7500000176088264  0.9234122283128769
  0.8740322714661910  0.2500000000663931  0.0765877511133368
  0.3740322713884926  0.2500000000663931  0.4234123105261318
  0.6259677285449077  0.7500000176088264  0.5765877306128147
  0.2143826990437488  0.0601166142044339  0.1570691985391804
  0.7856173010006461  0.9398833769136895  0.8429307809732293
  0.2856173009229480  0.9398833769136895  0.6570692190655593
  0.7143826990104526  0.0601166142044339  0.3429307809602974
  0.7856173010006461  0.5601166230420437  0.8429307809732293
  0.2143826990437488  0.4398833769284475  0.1570691985391804
  0.7143826990104526  0.4398833769284475  0.3429307809602974
  0.2856173009229480  0.5601166230420437  0.6570692190655593
  0.1400015862843925  0.7500000176088264  0.5654766404298555
  0.8599983938920194  0.2500000000663931  0.4345233595098124
  0.3599984203419725  0.2500000000663931  0.0654765787903797
  0.6400016061190793  0.7500000176088264  0.9345234006358341
  0.2071411008986344  0.2500000000663931  0.0131157030033422
  0.7928588859374388  0.7500000176088264 -0.0131156876354966
  0.2928588858597409  0.7500000176088264  0.5131156208504195
  0.7071411140736599  0.2500000000663931  0.4868842969492503
 
  0.00000000E+00  0.00000000E+00  0.00000000E+00
  0.00000000E+00  0.00000000E+00  0.00000000E+00
  0.00000000E+00  0.00000000E+00  0.00000000E+00
  0.00000000E+00  0.00000000E+00  0.00000000E+00
  0.00000000E+00  0.00000000E+00  0.00000000E+00
  0.00000000E+00  0.00000000E+00  0.00000000E+00
  0.00000000E+00  0.00000000E+00  0.00000000E+00
  0.00000000E+00  0.00000000E+00  0.00000000E+00
  0.00000000E+00  0.00000000E+00  0.00000000E+00
  0.00000000E+00  0.00000000E+00  0.00000000E+00
  0.00000000E+00  0.00000000E+00  0.00000000E+00
  0.00000000E+00  0.00000000E+00  0.00000000E+00
  0.00000000E+00  0.00000000E+00  0.00000000E+00
  0.00000000E+00  0.00000000E+00  0.00000000E+00
  0.00000000E+00  0.00000000E+00  0.00000000E+00
  0.00000000E+00  0.00000000E+00  0.00000000E+00
  0.00000000E+00  0.00000000E+00  0.00000000E+00
  0.00000000E+00  0.00000000E+00  0.00000000E+00
  0.00000000E+00  0.00000000E+00  0.00000000E+00
  0.00000000E+00  0.00000000E+00  0.00000000E+00
  0.00000000E+00  0.00000000E+00  0.00000000E+00
  0.00000000E+00  0.00000000E+00  0.00000000E+00
  0.00000000E+00  0.00000000E+00  0.00000000E+00
  0.00000000E+00  0.00000000E+00  0.00000000E+00
