sr8 si16                                
   1.00000000000000     
     8.6544072570503250    0.0000000000000000    0.0000000000000000
    -0.0000000000000000    6.4709046553858940    0.0000000000000000
     0.0000000000000000    0.0000000000000000   11.1021827951235075
   Sr   Si
     8    16
Direct
  0.0147324573820666  0.2500000000663931  0.6923098014412278
  0.9852675458811649  0.7500000176088264  0.3076901985846290
  0.4852675459144609  0.7500000176088264  0.1923097397155632
  0.5147324540189399  0.2500000000663931  0.8076902397106506
  0.1576518326786178  0.7500000176088264  0.9066830920232390
  0.8423481673657839  0.2500000000663931  0.0933168874029747
  0.3423481672880861  0.2500000000663931  0.4066831742364940
  0.6576518326453148  0.7500000176088264  0.5933168669024526
  0.1926655049969971  0.0639998778891099  0.1487299009344516
  0.8073344950473976  0.9360001132290136  0.8512700785779580
  0.3073344949696998  0.9360001132290136  0.6487299214608305
  0.6926655049637011  0.0639998778891099  0.3512700785650262
  0.8073344950473976  0.5639998867267196  0.8512700785779580
  0.1926655049969971  0.4360001132437715  0.1487299009344517
  0.6926655049637011  0.4360001132437715  0.3512700785650262
  0.3073344949696998  0.5639998867267196  0.6487299214608305
  0.0759178623595169  0.7500000176088264  0.5912191043481939
  0.9240821178168951  0.2500000000663931  0.4087808955914738
  0.4240821442668483  0.2500000000663931  0.0912190427087183
  0.5759178821942036  0.7500000176088264  0.9087809367174956
  0.1965558925339463  0.2500000000663931  0.9610196627110673
  0.8034440943021268  0.7500000176088264  0.0389803526567783
  0.3034440942244291  0.7500000176088264  0.4610195805581446
  0.6965559057089719  0.2500000000663931  0.5389803372415253
 
  0.00000000E+00  0.00000000E+00  0.00000000E+00
  0.00000000E+00  0.00000000E+00  0.00000000E+00
  0.00000000E+00  0.00000000E+00  0.00000000E+00
  0.00000000E+00  0.00000000E+00  0.00000000E+00
  0.00000000E+00  0.00000000E+00  0.00000000E+00
  0.00000000E+00  0.00000000E+00  0.00000000E+00
  0.00000000E+00  0.00000000E+00  0.00000000E+00
  0.00000000E+00  0.00000000E+00  0.00000000E+00
  0.00000000E+00  0.00000000E+00  0.00000000E+00
  0.00000000E+00  0.00000000E+00  0.00000000E+00
  0.00000000E+00  0.00000000E+00  0.00000000E+00
  0.00000000E+00  0.00000000E+00  0.00000000E+00
  0.00000000E+00  0.00000000E+00  0.00000000E+00
  0.00000000E+00  0.00000000E+00  0.00000000E+00
  0.00000000E+00  0.00000000E+00  0.00000000E+00
  0.00000000E+00  0.00000000E+00  0.00000000E+00
  0.00000000E+00  0.00000000E+00  0.00000000E+00
  0.00000000E+00  0.00000000E+00  0.00000000E+00
  0.00000000E+00  0.00000000E+00  0.00000000E+00
  0.00000000E+00  0.00000000E+00  0.00000000E+00
  0.00000000E+00  0.00000000E+00  0.00000000E+00
  0.00000000E+00  0.00000000E+00  0.00000000E+00
  0.00000000E+00  0.00000000E+00  0.00000000E+00
  0.00000000E+00  0.00000000E+00  0.00000000E+00
