ba8 si16
1.0
       99.1041488647         0.0000000000         0.0000000000
        0.0000000000         6.7778496742         0.0000000000
        0.0000000000         0.0000000000        11.6021432877
   Ba   Si
   88  176
Cartesian
     0.136700666         1.694462419         8.020677543
     9.146168967         1.694462419         8.020677543
    18.155636576         1.694462419         8.020677543
    27.165103446         1.694462419         8.020677543
    36.174571793         1.694462419         8.020677543
    45.184040140         1.694462419         8.020677543
    54.193511441         1.694462419         8.020677543
    63.202976834         1.694462419         8.020677543
    72.212448135         1.694462419         8.020677543
    81.221913529         1.694462419         8.020677543
    90.231378922         1.694462419         8.020677543
     8.872766989         5.083387256         3.581465745
    17.882235336         5.083387256         3.581465745
    26.891703683         5.083387256         3.581465745
    35.901172030         5.083387256         3.581465745
    44.910640377         5.083387256         3.581465745
    53.920108725         5.083387256         3.581465745
    62.929574118         5.083387256         3.581465745
    71.939045419         5.083387256         3.581465745
    80.948510812         5.083387256         3.581465745
    89.957982113         5.083387256         3.581465745
    98.967447507         5.083387256         3.581465745
     4.368033554         5.083387256         2.219605207
    13.377501163         5.083387256         2.219605207
    22.386969510         5.083387256         2.219605207
    31.396436380         5.083387256         2.219605207
    40.405904727         5.083387256         2.219605207
    49.415373074         5.083387256         2.219605207
    58.424844375         5.083387256         2.219605207
    67.434309768         5.083387256         2.219605207
    76.443781069         5.083387256         2.219605207
    85.453246463         5.083387256         2.219605207
    94.462711856         5.083387256         2.219605207
     4.641434793         1.694462419         9.382538080
    13.650902402         1.694462419         9.382538080
    22.660370749         1.694462419         9.382538080
    31.669839096         1.694462419         9.382538080
    40.679307443         1.694462419         9.382538080
    49.688775791         1.694462419         9.382538080
    58.698241184         1.694462419         9.382538080
    67.707712485         1.694462419         9.382538080
    76.717177878         1.694462419         9.382538080
    85.726649179         1.694462419         9.382538080
    94.736114573         1.694462419         9.382538080
     1.435289407         5.083387256        10.519083290
    10.444757292         5.083387256        10.519083290
    19.454225640         5.083387256        10.519083290
    28.463692510         5.083387256        10.519083290
    37.473160857         5.083387256        10.519083290
    46.482629204         5.083387256        10.519083290
    55.492097551         5.083387256        10.519083290
    64.501568852         5.083387256        10.519083290
    73.511034246         5.083387256        10.519083290
    82.520499639         5.083387256        10.519083290
    91.529970940         5.083387256        10.519083290
     7.574178663         1.694462419         1.083059997
    16.583646272         1.694462419         1.083059997
    25.593114619         1.694462419         1.083059997
    34.602582966         1.694462419         1.083059997
    43.612051313         1.694462419         1.083059997
    52.621516707         1.694462419         1.083059997
    61.630988008         1.694462419         1.083059997
    70.640453401         1.694462419         1.083059997
    79.649924702         1.694462419         1.083059997
    88.659390095         1.694462419         1.083059997
    97.668861396         1.694462419         1.083059997
     3.069444490         1.694462419         4.718012338
    12.078912837         1.694462419         4.718012338
    21.088380446         1.694462419         4.718012338
    30.097847316         1.694462419         4.718012338
    39.107315663         1.694462419         4.718012338
    48.116784010         1.694462419         4.718012338
    57.126252357         1.694462419         4.718012338
    66.135723658         1.694462419         4.718012338
    75.145189052         1.694462419         4.718012338
    84.154654445         1.694462419         4.718012338
    93.164125746         1.694462419         4.718012338
     5.940023488         5.083387256         6.884131641
    14.949491466         5.083387256         6.884131641
    23.958959813         5.083387256         6.884131641
    32.968428160         5.083387256         6.884131641
    41.977896507         5.083387256         6.884131641
    50.987361901         5.083387256         6.884131641
    59.996833202         5.083387256         6.884131641
    69.006298595         5.083387256         6.884131641
    78.015769896         5.083387256         6.884131641
    87.025235289         5.083387256         6.884131641
    96.034706590         5.083387256         6.884131641
     1.750269295         0.491671983         1.702544891
    10.759737642         0.491671983         1.702544891
    19.769205251         0.491671983         1.702544891
    28.778672121         0.491671983         1.702544891
    37.788140469         0.491671983         1.702544891
    46.797608816         0.491671983         1.702544891
    55.807080116         0.491671983         1.702544891
    64.816545510         0.491671983         1.702544891
    73.826016811         0.491671983         1.702544891
    82.835482204         0.491671983         1.702544891
    91.844947598         0.491671983         1.702544891
     7.259199052         6.286177691         9.899598224
    16.268666661         6.286177691         9.899598224
    25.278135008         6.286177691         9.899598224
    34.287603355         6.286177691         9.899598224
    43.297071702         6.286177691         9.899598224
    52.306540049         6.286177691         9.899598224
    61.316005443         6.286177691         9.899598224
    70.325476743         6.286177691         9.899598224
    79.334942137         6.286177691         9.899598224
    88.344413438         6.286177691         9.899598224
    97.353878831         6.286177691         9.899598224
     2.754464694         6.286177691         7.503616707
    11.763932487         6.286177691         7.503616707
    20.773400834         6.286177691         7.503616707
    29.782867704         6.286177691         7.503616707
    38.792336052         6.286177691         7.503616707
    47.801804399         6.286177691         7.503616707
    56.811275699         6.286177691         7.503616707
    65.820741093         6.286177691         7.503616707
    74.830206487         6.286177691         7.503616707
    83.839677787         6.286177691         7.503616707
    92.849143181         6.286177691         7.503616707
     6.255003469         0.491671983         4.098526580
    15.264471078         0.491671983         4.098526580
    24.273939425         0.491671983         4.098526580
    33.283407772         0.491671983         4.098526580
    42.292876119         0.491671983         4.098526580
    51.302344466         0.491671983         4.098526580
    60.311809860         0.491671983         4.098526580
    69.321281160         0.491671983         4.098526580
    78.330746554         0.491671983         4.098526580
    87.340217854         0.491671983         4.098526580
    96.349683248         0.491671983         4.098526580
     7.259199052         3.880596820         9.899598224
    16.268666661         3.880596820         9.899598224
    25.278135008         3.880596820         9.899598224
    34.287603355         3.880596820         9.899598224
    43.297071702         3.880596820         9.899598224
    52.306540049         3.880596820         9.899598224
    61.316005443         3.880596820         9.899598224
    70.325476743         3.880596820         9.899598224
    79.334942137         3.880596820         9.899598224
    88.344413438         3.880596820         9.899598224
    97.353878831         3.880596820         9.899598224
     1.750269295         2.897252854         1.702544891
    10.759737642         2.897252854         1.702544891
    19.769205251         2.897252854         1.702544891
    28.778672121         2.897252854         1.702544891
    37.788140469         2.897252854         1.702544891
    46.797608816         2.897252854         1.702544891
    55.807080116         2.897252854         1.702544891
    64.816545510         2.897252854         1.702544891
    73.826016811         2.897252854         1.702544891
    82.835482204         2.897252854         1.702544891
    91.844947598         2.897252854         1.702544891
     6.255003469         2.897252854         4.098526580
    15.264471078         2.897252854         4.098526580
    24.273939425         2.897252854         4.098526580
    33.283407772         2.897252854         4.098526580
    42.292876119         2.897252854         4.098526580
    51.302344466         2.897252854         4.098526580
    60.311809860         2.897252854         4.098526580
    69.321281160         2.897252854         4.098526580
    78.330746554         2.897252854         4.098526580
    87.340217854         2.897252854         4.098526580
    96.349683248         2.897252854         4.098526580
     2.754464694         3.880596820         7.503616707
    11.763932487         3.880596820         7.503616707
    20.773400834         3.880596820         7.503616707
    29.782867704         3.880596820         7.503616707
    38.792336052         3.880596820         7.503616707
    47.801804399         3.880596820         7.503616707
    56.811275699         3.880596820         7.503616707
    65.820741093         3.880596820         7.503616707
    74.830206487         3.880596820         7.503616707
    83.839677787         3.880596820         7.503616707
    92.849143181         3.880596820         7.503616707
     0.746930006         5.083387256         6.868480671
     9.756397846         5.083387256         6.868480671
    18.765866193         5.083387256         6.868480671
    27.775333063         5.083387256         6.868480671
    36.784801410         5.083387256         6.868480671
    45.794269757         5.083387256         6.868480671
    54.803741058         5.083387256         6.868480671
    63.813206452         5.083387256         6.868480671
    72.822671845         5.083387256         6.868480671
    81.832143146         5.083387256         6.868480671
    90.841608540         5.083387256         6.868480671
     8.262538110         1.694462419         4.733662617
    17.272005719         1.694462419         4.733662617
    26.281474066         1.694462419         4.733662617
    35.290942413         1.694462419         4.733662617
    44.300410760         1.694462419         4.733662617
    53.309879107         1.694462419         4.733662617
    62.319344501         1.694462419         4.733662617
    71.328815802         1.694462419         4.733662617
    80.338281195         1.694462419         4.733662617
    89.347752496         1.694462419         4.733662617
    98.357217889         1.694462419         4.733662617
     3.757804306         1.694462419         1.067408336
    12.767273022         1.694462419         1.067408336
    21.776739892         1.694462419         1.067408336
    30.786209716         1.694462419         1.067408336
    39.795678063         1.694462419         1.067408336
    48.805143457         1.694462419         1.067408336
    57.814614758         1.694462419         1.067408336
    66.824080151         1.694462419         1.067408336
    75.833551452         1.694462419         1.067408336
    84.843016845         1.694462419         1.067408336
    93.852482239         1.694462419         1.067408336
     5.251664041         5.083387256        10.534734952
    14.261132019         5.083387256        10.534734952
    23.270600366         5.083387256        10.534734952
    32.280068714         5.083387256        10.534734952
    41.289537061         5.083387256        10.534734952
    50.299005408         5.083387256        10.534734952
    59.308470801         5.083387256        10.534734952
    68.317942102         5.083387256        10.534734952
    77.327407496         5.083387256        10.534734952
    86.336878796         5.083387256        10.534734952
    95.346344190         5.083387256        10.534734952
     1.781117848         1.694462419        11.218576265
    10.790585826         1.694462419        11.218576265
    19.800053435         1.694462419        11.218576265
    28.809521782         1.694462419        11.218576265
    37.818990129         1.694462419        11.218576265
    46.828458476         1.694462419        11.218576265
    55.837926823         1.694462419        11.218576265
    64.847392217         1.694462419        11.218576265
    73.856863518         1.694462419        11.218576265
    82.866328911         1.694462419        11.218576265
    91.875800212         1.694462419        11.218576265
     7.228350130         5.083387256         0.383567022
    16.237818477         5.083387256         0.383567022
    25.247285347         5.083387256         0.383567022
    34.256753694         5.083387256         0.383567022
    43.266222041         5.083387256         0.383567022
    52.275693342         5.083387256         0.383567022
    61.285158736         5.083387256         0.383567022
    70.294624129         5.083387256         0.383567022
    79.304095430         5.083387256         0.383567022
    88.313560824         5.083387256         0.383567022
    97.323032124         5.083387256         0.383567022
     2.723616325         5.083387256         5.417503930
    11.733084303         5.083387256         5.417503930
    20.742552650         5.083387256         5.417503930
    29.752020998         5.083387256         5.417503930
    38.761489345         5.083387256         5.417503930
    47.770957692         5.083387256         5.417503930
    56.780423085         5.083387256         5.417503930
    65.789894386         5.083387256         5.417503930
    74.799359780         5.083387256         5.417503930
    83.808831080         5.083387256         5.417503930
    92.818296474         5.083387256         5.417503930
     6.285851653         1.694462419         6.184638666
    15.295319261         1.694462419         6.184638666
    24.304787608         1.694462419         6.184638666
    33.314254479         1.694462419         6.184638666
    42.323722826         1.694462419         6.184638666
    51.333191173         1.694462419         6.184638666
    60.342662474         1.694462419         6.184638666
    69.352127867         1.694462419         6.184638666
    78.361599168         1.694462419         6.184638666
    87.371064561         1.694462419         6.184638666
    96.380529955         1.694462419         6.184638666
