ba8 si16
1.0
      195.1893615723         0.0000000000         0.0000000000
        0.0000000000         6.7778496742         0.0000000000
        0.0000000000         0.0000000000        11.6021432877
   Ba   Si
  160  320
Cartesian
     0.136700662         1.694462419         8.020677543
     9.146168497         1.694462419         8.020677543
    18.155636710         1.694462419         8.020677543
    27.165105594         1.694462419         8.020677543
    36.174573136         1.694462419         8.020677543
    45.184040677         1.694462419         8.020677543
    54.193510904         1.694462419         8.020677543
    63.202975760         1.694462419         8.020677543
    72.212445987         1.694462419         8.020677543
    81.221910844         1.694462419         8.020677543
    90.231381070         1.694462419         8.020677543
    99.240851297         1.694462419         8.020677543
   108.250321524         1.694462419         8.020677543
   117.259781010         1.694462419         8.020677543
   126.269251237         1.694462419         8.020677543
   135.278721463         1.694462419         8.020677543
   144.288191690         1.694462419         8.020677543
   153.297661917         1.694462419         8.020677543
   162.307121403         1.694462419         8.020677543
   171.316591630         1.694462419         8.020677543
     8.872767257         5.083387256         3.581465745
    17.882234799         5.083387256         3.581465745
    26.891702341         5.083387256         3.581465745
    35.901172567         5.083387256         3.581465745
    44.910640109         5.083387256         3.581465745
    53.920110336         5.083387256         3.581465745
    62.929575192         5.083387256         3.581465745
    71.939045419         5.083387256         3.581465745
    80.948510275         5.083387256         3.581465745
    89.957980502         5.083387256         3.581465745
    98.967450729         5.083387256         3.581465745
   107.976920955         5.083387256         3.581465745
   116.986380442         5.083387256         3.581465745
   125.995850668         5.083387256         3.581465745
   135.005320895         5.083387256         3.581465745
   144.014791122         5.083387256         3.581465745
   153.024261348         5.083387256         3.581465745
   162.033720835         5.083387256         3.581465745
   171.043191061         5.083387256         3.581465745
   180.052661288         5.083387256         3.581465745
     4.368033487         5.083387256         2.219605207
    13.377501028         5.083387256         2.219605207
    22.386969912         5.083387256         2.219605207
    31.396437454         5.083387256         2.219605207
    40.405904996         5.083387256         2.219605207
    49.415375222         5.083387256         2.219605207
    58.424840079         5.083387256         2.219605207
    67.434310305         5.083387256         2.219605207
    76.443780532         5.083387256         2.219605207
    85.453245389         5.083387256         2.219605207
    94.462710245         5.083387256         2.219605207
   103.472180472         5.083387256         2.219605207
   112.481650699         5.083387256         2.219605207
   121.491120925         5.083387256         2.219605207
   130.500591152         5.083387256         2.219605207
   139.510050638         5.083387256         2.219605207
   148.519520865         5.083387256         2.219605207
   157.528991092         5.083387256         2.219605207
   166.538461318         5.083387256         2.219605207
   175.547931545         5.083387256         2.219605207
     4.641435062         1.694462419         9.382538080
    13.650902939         1.694462419         9.382538080
    22.660370481         1.694462419         9.382538080
    31.669838022         1.694462419         9.382538080
    40.679308249         1.694462419         9.382538080
    49.688775791         1.694462419         9.382538080
    58.698246017         1.694462419         9.382538080
    67.707710874         1.694462419         9.382538080
    76.717181100         1.694462419         9.382538080
    85.726645957         1.694462419         9.382538080
    94.736110814         1.694462419         9.382538080
   103.745581040         1.694462419         9.382538080
   112.755051267         1.694462419         9.382538080
   121.764521493         1.694462419         9.382538080
   130.773991720         1.694462419         9.382538080
   139.783451207         1.694462419         9.382538080
   148.792921433         1.694462419         9.382538080
   157.802391660         1.694462419         9.382538080
   166.811861886         1.694462419         9.382538080
   175.821332113         1.694462419         9.382538080
     1.435289382         5.083387256        10.519083290
    10.444757427         5.083387256        10.519083290
    19.454224968         5.083387256        10.519083290
    28.463693852         5.083387256        10.519083290
    37.473161394         5.083387256        10.519083290
    46.482628936         5.083387256        10.519083290
    55.492099162         5.083387256        10.519083290
    64.501564019         5.083387256        10.519083290
    73.511034246         5.083387256        10.519083290
    82.520504472         5.083387256        10.519083290
    91.529969329         5.083387256        10.519083290
   100.539439555         5.083387256        10.519083290
   109.548909782         5.083387256        10.519083290
   118.558369269         5.083387256        10.519083290
   127.567839495         5.083387256        10.519083290
   136.577309722         5.083387256        10.519083290
   145.586779948         5.083387256        10.519083290
   154.596250175         5.083387256        10.519083290
   163.605709662         5.083387256        10.519083290
   172.615179888         5.083387256        10.519083290
     7.574178328         1.694462419         1.083059997
    16.583646541         1.694462419         1.083059997
    25.593114082         1.694462419         1.083059997
    34.602581624         1.694462419         1.083059997
    43.612051850         1.694462419         1.083059997
    52.621516707         1.694462419         1.083059997
    61.630986934         1.694462419         1.083059997
    70.640457160         1.694462419         1.083059997
    79.649922017         1.694462419         1.083059997
    88.659392244         1.694462419         1.083059997
    97.668862470         1.694462419         1.083059997
   106.678321957         1.694462419         1.083059997
   115.687792183         1.694462419         1.083059997
   124.697262410         1.694462419         1.083059997
   133.706732637         1.694462419         1.083059997
   142.716202863         1.694462419         1.083059997
   151.725662350         1.694462419         1.083059997
   160.735132576         1.694462419         1.083059997
   169.744602803         1.694462419         1.083059997
   178.754073030         1.694462419         1.083059997
     3.069444557         1.694462419         4.718012338
    12.078912770         1.694462419         4.718012338
    21.088380311         1.694462419         4.718012338
    30.097849196         1.694462419         4.718012338
    39.107316737         1.694462419         4.718012338
    48.116786964         1.694462419         4.718012338
    57.126251820         1.694462419         4.718012338
    66.135722047         1.694462419         4.718012338
    75.145186904         1.694462419         4.718012338
    84.154657130         1.694462419         4.718012338
    93.164121987         1.694462419         4.718012338
   102.173592213         1.694462419         4.718012338
   111.183062440         1.694462419         4.718012338
   120.192532667         1.694462419         4.718012338
   129.202002893         1.694462419         4.718012338
   138.211462380         1.694462419         4.718012338
   147.220932606         1.694462419         4.718012338
   156.230402833         1.694462419         4.718012338
   165.239873060         1.694462419         4.718012338
   174.249343286         1.694462419         4.718012338
     5.940023656         5.083387256         6.884131641
    14.949491198         5.083387256         6.884131641
    23.958958739         5.083387256         6.884131641
    32.968428966         5.083387256         6.884131641
    41.977896507         5.083387256         6.884131641
    50.987364049         5.083387256         6.884131641
    59.996834276         5.083387256         6.884131641
    69.006299132         5.083387256         6.884131641
    78.015769359         5.083387256         6.884131641
    87.025234215         5.083387256         6.884131641
    96.034699072         5.083387256         6.884131641
   105.044169299         5.083387256         6.884131641
   114.053639525         5.083387256         6.884131641
   123.063109752         5.083387256         6.884131641
   132.072579979         5.083387256         6.884131641
   141.082039465         5.083387256         6.884131641
   150.091509692         5.083387256         6.884131641
   159.100979918         5.083387256         6.884131641
   168.110450145         5.083387256         6.884131641
   177.119920372         5.083387256         6.884131641
     1.750269329         0.491671983         1.702544891
    10.759737710         0.491671983         1.702544891
    19.769205922         0.491671983         1.702544891
    28.778674806         0.491671983         1.702544891
    37.788142348         0.491671983         1.702544891
    46.797609890         0.491671983         1.702544891
    55.807080116         0.491671983         1.702544891
    64.816544973         0.491671983         1.702544891
    73.826015200         0.491671983         1.702544891
    82.835480056         0.491671983         1.702544891
    91.844944913         0.491671983         1.702544891
   100.854415139         0.491671983         1.702544891
   109.863885366         0.491671983         1.702544891
   118.873355593         0.491671983         1.702544891
   127.882825819         0.491671983         1.702544891
   136.892285306         0.491671983         1.702544891
   145.901755532         0.491671983         1.702544891
   154.911225759         0.491671983         1.702544891
   163.920695986         0.491671983         1.702544891
   172.930166212         0.491671983         1.702544891
     7.259198045         6.286177691         9.899598224
    16.268665587         6.286177691         9.899598224
    25.278133128         6.286177691         9.899598224
    34.287603355         6.286177691         9.899598224
    43.297070896         6.286177691         9.899598224
    52.306535753         6.286177691         9.899598224
    61.316005980         6.286177691         9.899598224
    70.325476206         6.286177691         9.899598224
    79.334941063         6.286177691         9.899598224
    88.344411289         6.286177691         9.899598224
    97.353876146         6.286177691         9.899598224
   106.363346373         6.286177691         9.899598224
   115.372816599         6.286177691         9.899598224
   124.382286826         6.286177691         9.899598224
   133.391746312         6.286177691         9.899598224
   142.401216539         6.286177691         9.899598224
   151.410686766         6.286177691         9.899598224
   160.420156992         6.286177691         9.899598224
   169.429627219         6.286177691         9.899598224
   178.439086706         6.286177691         9.899598224
     2.754464610         6.286177691         7.503616707
    11.763933158         6.286177691         7.503616707
    20.773400700         6.286177691         7.503616707
    29.782868242         6.286177691         7.503616707
    38.792335783         6.286177691         7.503616707
    47.801806010         6.286177691         7.503616707
    56.811270866         6.286177691         7.503616707
    65.820741093         6.286177691         7.503616707
    74.830211320         6.286177691         7.503616707
    83.839676176         6.286177691         7.503616707
    92.849146403         6.286177691         7.503616707
   101.858616629         6.286177691         7.503616707
   110.868086856         6.286177691         7.503616707
   119.877546343         6.286177691         7.503616707
   128.887016569         6.286177691         7.503616707
   137.896486796         6.286177691         7.503616707
   146.905957023         6.286177691         7.503616707
   155.915427249         6.286177691         7.503616707
   164.924886736         6.286177691         7.503616707
   173.934356962         6.286177691         7.503616707
     6.255003267         0.491671983         4.098526580
    15.264470809         0.491671983         4.098526580
    24.273939693         0.491671983         4.098526580
    33.283407235         0.491671983         4.098526580
    42.292874776         0.491671983         4.098526580
    51.302345003         0.491671983         4.098526580
    60.311809860         0.491671983         4.098526580
    69.321280086         0.491671983         4.098526580
    78.330750313         0.491671983         4.098526580
    87.340215169         0.491671983         4.098526580
    96.349685396         0.491671983         4.098526580
   105.359155623         0.491671983         4.098526580
   114.368615109         0.491671983         4.098526580
   123.378085336         0.491671983         4.098526580
   132.387555563         0.491671983         4.098526580
   141.397025789         0.491671983         4.098526580
   150.406496016         0.491671983         4.098526580
   159.415955502         0.491671983         4.098526580
   168.425425729         0.491671983         4.098526580
   177.434895956         0.491671983         4.098526580
     7.259198045         3.880596820         9.899598224
    16.268665587         3.880596820         9.899598224
    25.278133128         3.880596820         9.899598224
    34.287603355         3.880596820         9.899598224
    43.297070896         3.880596820         9.899598224
    52.306535753         3.880596820         9.899598224
    61.316005980         3.880596820         9.899598224
    70.325476206         3.880596820         9.899598224
    79.334941063         3.880596820         9.899598224
    88.344411289         3.880596820         9.899598224
    97.353876146         3.880596820         9.899598224
   106.363346373         3.880596820         9.899598224
   115.372816599         3.880596820         9.899598224
   124.382286826         3.880596820         9.899598224
   133.391746312         3.880596820         9.899598224
   142.401216539         3.880596820         9.899598224
   151.410686766         3.880596820         9.899598224
   160.420156992         3.880596820         9.899598224
   169.429627219         3.880596820         9.899598224
   178.439086706         3.880596820         9.899598224
     1.750269329         2.897252854         1.702544891
    10.759737710         2.897252854         1.702544891
    19.769205922         2.897252854         1.702544891
    28.778674806         2.897252854         1.702544891
    37.788142348         2.897252854         1.702544891
    46.797609890         2.897252854         1.702544891
    55.807080116         2.897252854         1.702544891
    64.816544973         2.897252854         1.702544891
    73.826015200         2.897252854         1.702544891
    82.835480056         2.897252854         1.702544891
    91.844944913         2.897252854         1.702544891
   100.854415139         2.897252854         1.702544891
   109.863885366         2.897252854         1.702544891
   118.873355593         2.897252854         1.702544891
   127.882825819         2.897252854         1.702544891
   136.892285306         2.897252854         1.702544891
   145.901755532         2.897252854         1.702544891
   154.911225759         2.897252854         1.702544891
   163.920695986         2.897252854         1.702544891
   172.930166212         2.897252854         1.702544891
     6.255003267         2.897252854         4.098526580
    15.264470809         2.897252854         4.098526580
    24.273939693         2.897252854         4.098526580
    33.283407235         2.897252854         4.098526580
    42.292874776         2.897252854         4.098526580
    51.302345003         2.897252854         4.098526580
    60.311809860         2.897252854         4.098526580
    69.321280086         2.897252854         4.098526580
    78.330750313         2.897252854         4.098526580
    87.340215169         2.897252854         4.098526580
    96.349685396         2.897252854         4.098526580
   105.359155623         2.897252854         4.098526580
   114.368615109         2.897252854         4.098526580
   123.378085336         2.897252854         4.098526580
   132.387555563         2.897252854         4.098526580
   141.397025789         2.897252854         4.098526580
   150.406496016         2.897252854         4.098526580
   159.415955502         2.897252854         4.098526580
   168.425425729         2.897252854         4.098526580
   177.434895956         2.897252854         4.098526580
     2.754464610         3.880596820         7.503616707
    11.763933158         3.880596820         7.503616707
    20.773400700         3.880596820         7.503616707
    29.782868242         3.880596820         7.503616707
    38.792335783         3.880596820         7.503616707
    47.801806010         3.880596820         7.503616707
    56.811270866         3.880596820         7.503616707
    65.820741093         3.880596820         7.503616707
    74.830211320         3.880596820         7.503616707
    83.839676176         3.880596820         7.503616707
    92.849146403         3.880596820         7.503616707
   101.858616629         3.880596820         7.503616707
   110.868086856         3.880596820         7.503616707
   119.877546343         3.880596820         7.503616707
   128.887016569         3.880596820         7.503616707
   137.896486796         3.880596820         7.503616707
   146.905957023         3.880596820         7.503616707
   155.915427249         3.880596820         7.503616707
   164.924886736         3.880596820         7.503616707
   173.934356962         3.880596820         7.503616707
     0.746929985         5.083387256         6.868480671
     9.756398114         5.083387256         6.868480671
    18.765866327         5.083387256         6.868480671
    27.775335211         5.083387256         6.868480671
    36.784802753         5.083387256         6.868480671
    45.794272979         5.083387256         6.868480671
    54.803737836         5.083387256         6.868480671
    63.813208063         5.083387256         6.868480671
    72.822672919         5.083387256         6.868480671
    81.832143146         5.083387256         6.868480671
    90.841613373         5.083387256         6.868480671
    99.851083599         5.083387256         6.868480671
   108.860543086         5.083387256         6.868480671
   117.870013312         5.083387256         6.868480671
   126.879483539         5.083387256         6.868480671
   135.888953766         5.083387256         6.868480671
   144.898423992         5.083387256         6.868480671
   153.907883479         5.083387256         6.868480671
   162.917353705         5.083387256         6.868480671
   171.926823932         5.083387256         6.868480671
     8.262538311         1.694462419         4.733662617
    17.272006524         1.694462419         4.733662617
    26.281475408         1.694462419         4.733662617
    35.290942950         1.694462419         4.733662617
    44.300410492         1.694462419         4.733662617
    53.309878033         1.694462419         4.733662617
    62.319348260         1.694462419         4.733662617
    71.328813116         1.694462419         4.733662617
    80.338283343         1.694462419         4.733662617
    89.347753570         1.694462419         4.733662617
    98.357218426         1.694462419         4.733662617
   107.366688653         1.694462419         4.733662617
   116.376158880         1.694462419         4.733662617
   125.385618366         1.694462419         4.733662617
   134.395088593         1.694462419         4.733662617
   143.404558819         1.694462419         4.733662617
   152.414029046         1.694462419         4.733662617
   161.423499273         1.694462419         4.733662617
   170.432958759         1.694462419         4.733662617
   179.442428986         1.694462419         4.733662617
     3.757804205         1.694462419         1.067408336
    12.767272754         1.694462419         1.067408336
    21.776740295         1.694462419         1.067408336
    30.786207837         1.694462419         1.067408336
    39.795675378         1.694462419         1.067408336
    48.805142920         1.694462419         1.067408336
    57.814613147         1.694462419         1.067408336
    66.824083373         1.694462419         1.067408336
    75.833548230         1.694462419         1.067408336
    84.843018456         1.694462419         1.067408336
    93.852488683         1.694462419         1.067408336
   102.861948170         1.694462419         1.067408336
   111.871418396         1.694462419         1.067408336
   120.880888623         1.694462419         1.067408336
   129.890358850         1.694462419         1.067408336
   138.899829076         1.694462419         1.067408336
   147.909288563         1.694462419         1.067408336
   156.918758789         1.694462419         1.067408336
   165.928229016         1.694462419         1.067408336
   174.937699243         1.694462419         1.067408336
     5.251663672         5.083387256        10.534734952
    14.261131214         5.083387256        10.534734952
    23.270600098         5.083387256        10.534734952
    32.280067640         5.083387256        10.534734952
    41.289535181         5.083387256        10.534734952
    50.299002723         5.083387256        10.534734952
    59.308472949         5.083387256        10.534734952
    68.317937806         5.083387256        10.534734952
    77.327408033         5.083387256        10.534734952
    86.336878259         5.083387256        10.534734952
    95.346343116         5.083387256        10.534734952
   104.355813342         5.083387256        10.534734952
   113.365283569         5.083387256        10.534734952
   122.374753796         5.083387256        10.534734952
   131.384213282         5.083387256        10.534734952
   140.393683509         5.083387256        10.534734952
   149.403153736         5.083387256        10.534734952
   158.412623962         5.083387256        10.534734952
   167.422094189         5.083387256        10.534734952
   176.431553675         5.083387256        10.534734952
     1.781117815         1.694462419        11.218576265
    10.790586027         1.694462419        11.218576265
    19.800054240         1.694462419        11.218576265
    28.809523124         1.694462419        11.218576265
    37.818990666         1.694462419        11.218576265
    46.828460893         1.694462419        11.218576265
    55.837925749         1.694462419        11.218576265
    64.847395976         1.694462419        11.218576265
    73.856860832         1.694462419        11.218576265
    82.866331059         1.694462419        11.218576265
    91.875801286         1.694462419        11.218576265
   100.885271512         1.694462419        11.218576265
   109.894730999         1.694462419        11.218576265
   118.904201226         1.694462419        11.218576265
   127.913671452         1.694462419        11.218576265
   136.923141679         1.694462419        11.218576265
   145.932611905         1.694462419        11.218576265
   154.942071392         1.694462419        11.218576265
   163.951541619         1.694462419        11.218576265
   172.961011845         1.694462419        11.218576265
     7.228350398         5.083387256         0.383567022
    16.237818611         5.083387256         0.383567022
    25.247287495         5.083387256         0.383567022
    34.256755037         5.083387256         0.383567022
    43.266222578         5.083387256         0.383567022
    52.275690120         5.083387256         0.383567022
    61.285160347         5.083387256         0.383567022
    70.294625203         5.083387256         0.383567022
    79.304095430         5.083387256         0.383567022
    88.313565657         5.083387256         0.383567022
    97.323030513         5.083387256         0.383567022
   106.332500740         5.083387256         0.383567022
   115.341970966         5.083387256         0.383567022
   124.351430453         5.083387256         0.383567022
   133.360900680         5.083387256         0.383567022
   142.370370906         5.083387256         0.383567022
   151.379841133         5.083387256         0.383567022
   160.389311359         5.083387256         0.383567022
   169.398770846         5.083387256         0.383567022
   178.408241073         5.083387256         0.383567022
     2.723616292         5.083387256         5.417503930
    11.733084840         5.083387256         5.417503930
    20.742552382         5.083387256         5.417503930
    29.752019924         5.083387256         5.417503930
    38.761487465         5.083387256         5.417503930
    47.770955007         5.083387256         5.417503930
    56.780425233         5.083387256         5.417503930
    65.789895460         5.083387256         5.417503930
    74.799360317         5.083387256         5.417503930
    83.808830543         5.083387256         5.417503930
    92.818300770         5.083387256         5.417503930
   101.827760256         5.083387256         5.417503930
   110.837230483         5.083387256         5.417503930
   119.846700710         5.083387256         5.417503930
   128.856170936         5.083387256         5.417503930
   137.865641163         5.083387256         5.417503930
   146.875100649         5.083387256         5.417503930
   155.884570876         5.083387256         5.417503930
   164.894041103         5.083387256         5.417503930
   173.903511329         5.083387256         5.417503930
     6.285851585         1.694462419         6.184638666
    15.295319127         1.694462419         6.184638666
    24.304788011         1.694462419         6.184638666
    33.314255553         1.694462419         6.184638666
    42.323723094         1.694462419         6.184638666
    51.333190636         1.694462419         6.184638666
    60.342660863         1.694462419         6.184638666
    69.352125719         1.694462419         6.184638666
    78.361595946         1.694462419         6.184638666
    87.371066172         1.694462419         6.184638666
    96.380531029         1.694462419         6.184638666
   105.390001256         1.694462419         6.184638666
   114.399471482         1.694462419         6.184638666
   123.408941709         1.694462419         6.184638666
   132.418401195         1.694462419         6.184638666
   141.427871422         1.694462419         6.184638666
   150.437341649         1.694462419         6.184638666
   159.446811875         1.694462419         6.184638666
   168.456282102         1.694462419         6.184638666
   177.465741589         1.694462419         6.184638666
