ba8 si16
1.0
       96.0852127075         0.0000000000         0.0000000000
        0.0000000000         6.7778496742         0.0000000000
        0.0000000000         0.0000000000        11.6021432877
   Ba   Si
   72  144
Cartesian
     0.136700660         1.694462419         8.020677567
     9.146168709         1.694462419         8.020677567
    18.155637741         1.694462419         8.020677567
    27.165105820         1.694462419         8.020677567
    36.174571991         1.694462419         8.020677567
    45.184043884         1.694462419         8.020677567
    54.193511963         1.694462419         8.020677567
    63.202980042         1.694462419         8.020677567
    72.212448120         1.694462419         8.020677567
     8.872767448         5.083387375         3.581465721
    17.882234573         5.083387375         3.581465721
    26.891704559         5.083387375         3.581465721
    35.901172638         5.083387375         3.581465721
    44.910640717         5.083387375         3.581465721
    53.920108795         5.083387375         3.581465721
    62.929580688         5.083387375         3.581465721
    71.939041138         5.083387375         3.581465721
    80.948516846         5.083387375         3.581465721
     4.368033409         5.083387375         2.219605207
    13.377502441         5.083387375         2.219605207
    22.386970520         5.083387375         2.219605207
    31.396438599         5.083387375         2.219605207
    40.405906677         5.083387375         2.219605207
    49.415374756         5.083387375         2.219605207
    58.424842834         5.083387375         2.219605207
    67.434310913         5.083387375         2.219605207
    76.443778992         5.083387375         2.219605207
     4.641435146         1.694462419         9.382537842
    13.650902748         1.694462419         9.382537842
    22.660371780         1.694462419         9.382537842
    31.669839859         1.694462419         9.382537842
    40.679309845         1.694462419         9.382537842
    49.688777924         1.694462419         9.382537842
    58.698246002         1.694462419         9.382537842
    67.707710266         1.694462419         9.382537842
    76.717178345         1.694462419         9.382537842
     1.435289383         5.083387375        10.519083023
    10.444756508         5.083387375        10.519083023
    19.454225540         5.083387375        10.519083023
    28.463693619         5.083387375        10.519083023
    37.473163605         5.083387375        10.519083023
    46.482635498         5.083387375        10.519083023
    55.492095947         5.083387375        10.519083023
    64.501571655         5.083387375        10.519083023
    73.511032104         5.083387375        10.519083023
     7.574178219         1.694462419         1.083060026
    16.583644867         1.694462419         1.083060026
    25.593114853         1.694462419         1.083060026
    34.602584839         1.694462419         1.083060026
    43.612049103         1.694462419         1.083060026
    52.621524811         1.694462419         1.083060026
    61.630985260         1.694462419         1.083060026
    70.640457153         1.694462419         1.083060026
    79.649917603         1.694462419         1.083060026
     3.069444656         1.694462419         4.718012333
    12.078912735         1.694462419         4.718012333
    21.088382721         1.694462419         4.718012333
    30.097848892         1.694462419         4.718012333
    39.107318878         1.694462419         4.718012333
    48.116786957         1.694462419         4.718012333
    57.126255035         1.694462419         4.718012333
    66.135719299         1.694462419         4.718012333
    75.145187378         1.694462419         4.718012333
     5.940023899         5.083387375         6.884131432
    14.949491501         5.083387375         6.884131432
    23.958961487         5.083387375         6.884131432
    32.968429565         5.083387375         6.884131432
    41.977897644         5.083387375         6.884131432
    50.987365723         5.083387375         6.884131432
    59.996833801         5.083387375         6.884131432
    69.006301880         5.083387375         6.884131432
    78.015769958         5.083387375         6.884131432
     1.750269413         0.491671979         1.702544928
    10.759737968         0.491671979         1.702544928
    19.769205093         0.491671979         1.702544928
    28.778675079         0.491671979         1.702544928
    37.788143158         0.491671979         1.702544928
    46.797615051         0.491671979         1.702544928
    55.807083130         0.491671979         1.702544928
    64.816551208         0.491671979         1.702544928
    73.826019287         0.491671979         1.702544928
     7.259198189         6.286177635         9.899598122
    16.268665314         6.286177635         9.899598122
    25.278135300         6.286177635         9.899598122
    34.287601471         6.286177635         9.899598122
    43.297069550         6.286177635         9.899598122
    52.306541443         6.286177635         9.899598122
    61.316005707         6.286177635         9.899598122
    70.325477600         6.286177635         9.899598122
    79.334938049         6.286177635         9.899598122
     2.754464626         6.286177635         7.503616810
    11.763932228         6.286177635         7.503616810
    20.773399353         6.286177635         7.503616810
    29.782869339         6.286177635         7.503616810
    38.792335510         6.286177635         7.503616810
    47.801807404         6.286177635         7.503616810
    56.811275482         6.286177635         7.503616810
    65.820739746         6.286177635         7.503616810
    74.830207825         6.286177635         7.503616810
     6.255003452         0.491671979         4.098526478
    15.264472008         0.491671979         4.098526478
    24.273941040         0.491671979         4.098526478
    33.283409119         0.491671979         4.098526478
    42.292877197         0.491671979         4.098526478
    51.302345276         0.491671979         4.098526478
    60.311813354         0.491671979         4.098526478
    69.321281433         0.491671979         4.098526478
    78.330749512         0.491671979         4.098526478
     7.259198189         3.880596876         9.899598122
    16.268665314         3.880596876         9.899598122
    25.278135300         3.880596876         9.899598122
    34.287601471         3.880596876         9.899598122
    43.297069550         3.880596876         9.899598122
    52.306541443         3.880596876         9.899598122
    61.316005707         3.880596876         9.899598122
    70.325477600         3.880596876         9.899598122
    79.334938049         3.880596876         9.899598122
     1.750269413         2.897252798         1.702544928
    10.759737968         2.897252798         1.702544928
    19.769205093         2.897252798         1.702544928
    28.778675079         2.897252798         1.702544928
    37.788143158         2.897252798         1.702544928
    46.797615051         2.897252798         1.702544928
    55.807083130         2.897252798         1.702544928
    64.816551208         2.897252798         1.702544928
    73.826019287         2.897252798         1.702544928
     6.255003452         2.897252798         4.098526478
    15.264472008         2.897252798         4.098526478
    24.273941040         2.897252798         4.098526478
    33.283409119         2.897252798         4.098526478
    42.292877197         2.897252798         4.098526478
    51.302345276         2.897252798         4.098526478
    60.311813354         2.897252798         4.098526478
    69.321281433         2.897252798         4.098526478
    78.330749512         2.897252798         4.098526478
     2.754464626         3.880596876         7.503616810
    11.763932228         3.880596876         7.503616810
    20.773399353         3.880596876         7.503616810
    29.782869339         3.880596876         7.503616810
    38.792335510         3.880596876         7.503616810
    47.801807404         3.880596876         7.503616810
    56.811275482         3.880596876         7.503616810
    65.820739746         3.880596876         7.503616810
    74.830207825         3.880596876         7.503616810
     0.746929944         5.083387375         6.868480682
     9.756398201         5.083387375         6.868480682
    18.765867233         5.083387375         6.868480682
    27.775335312         5.083387375         6.868480682
    36.784801483         5.083387375         6.868480682
    45.794273376         5.083387375         6.868480682
    54.803737640         5.083387375         6.868480682
    63.813205719         5.083387375         6.868480682
    72.822677612         5.083387375         6.868480682
     8.262537956         1.694462419         4.733662605
    17.272005081         1.694462419         4.733662605
    26.281473160         1.694462419         4.733662605
    35.290943146         1.694462419         4.733662605
    44.300415039         1.694462419         4.733662605
    53.309879303         1.694462419         4.733662605
    62.319347382         1.694462419         4.733662605
    71.328819275         1.694462419         4.733662605
    80.338279724         1.694462419         4.733662605
     3.757804155         1.694462419         1.067408323
    12.767271996         1.694462419         1.067408323
    21.776739120         1.694462419         1.067408323
    30.786209106         1.694462419         1.067408323
    39.795677185         1.694462419         1.067408323
    48.805145264         1.694462419         1.067408323
    57.814613342         1.694462419         1.067408323
    66.824081421         1.694462419         1.067408323
    75.833549500         1.694462419         1.067408323
     5.251663685         5.083387375        10.534734726
    14.261132240         5.083387375        10.534734726
    23.270601273         5.083387375        10.534734726
    32.280067444         5.083387375        10.534734726
    41.289535522         5.083387375        10.534734726
    50.299007416         5.083387375        10.534734726
    59.308475494         5.083387375        10.534734726
    68.317939758         5.083387375        10.534734726
    77.327407837         5.083387375        10.534734726
     1.781117916         1.694462419        11.218576431
    10.790586472         1.694462419        11.218576431
    19.800054550         1.694462419        11.218576431
    28.809524536         1.694462419        11.218576431
    37.818992615         1.694462419        11.218576431
    46.828456879         1.694462419        11.218576431
    55.837924957         1.694462419        11.218576431
    64.847396851         1.694462419        11.218576431
    73.856864929         1.694462419        11.218576431
     7.228350163         5.083387375         0.383567035
    16.237819672         5.083387375         0.383567035
    25.247285843         5.083387375         0.383567035
    34.256755829         5.083387375         0.383567035
    43.266220093         5.083387375         0.383567035
    52.275691986         5.083387375         0.383567035
    61.285160065         5.083387375         0.383567035
    70.294631958         5.083387375         0.383567035
    79.304100037         5.083387375         0.383567035
     2.723616362         5.083387375         5.417503834
    11.733084679         5.083387375         5.417503834
    20.742551804         5.083387375         5.417503834
    29.752021790         5.083387375         5.417503834
    38.761489868         5.083387375         5.417503834
    47.770957947         5.083387375         5.417503834
    56.780426025         5.083387375         5.417503834
    65.789894104         5.083387375         5.417503834
    74.799362183         5.083387375         5.417503834
     6.285851955         1.694462419         6.184638500
    15.295319557         1.694462419         6.184638500
    24.304786682         1.694462419         6.184638500
    33.314258575         1.694462419         6.184638500
    42.323722839         1.694462419         6.184638500
    51.333194733         1.694462419         6.184638500
    60.342662811         1.694462419         6.184638500
    69.352127075         1.694462419         6.184638500
    78.361595154         1.694462419         6.184638500
