ba8 si16
1.0
      141.1325531006         0.0000000000         0.0000000000
        0.0000000000         6.7778496742         0.0000000000
        0.0000000000         0.0000000000        11.6021432877
   Ba   Si
  112  224
Cartesian
     0.136700668         1.694462419         8.020677543
     9.146168900         1.694462419         8.020677543
    18.155636441         1.694462419         8.020677543
    27.165103983         1.694462419         8.020677543
    36.174571525         1.694462419         8.020677543
    45.184042825         1.694462419         8.020677543
    54.193510367         1.694462419         8.020677543
    63.202977908         1.694462419         8.020677543
    72.212441691         1.694462419         8.020677543
    81.221912992         1.694462419         8.020677543
    90.231384292         1.694462419         8.020677543
    99.240848075         1.694462419         8.020677543
   108.250319376         1.694462419         8.020677543
   117.259783158         1.694462419         8.020677543
     8.872766183         5.083387256         3.581465745
    17.882233725         5.083387256         3.581465745
    26.891703146         5.083387256         3.581465745
    35.901168808         5.083387256         3.581465745
    44.910640109         5.083387256         3.581465745
    53.920107651         5.083387256         3.581465745
    62.929575192         5.083387256         3.581465745
    71.939046493         5.083387256         3.581465745
    80.948510275         5.083387256         3.581465745
    89.957981576         5.083387256         3.581465745
    98.967445359         5.083387256         3.581465745
   107.976916659         5.083387256         3.581465745
   116.986380442         5.083387256         3.581465745
   125.995851742         5.083387256         3.581465745
     4.368033822         5.083387256         2.219605207
    13.377501834         5.083387256         2.219605207
    22.386969375         5.083387256         2.219605207
    31.396438797         5.083387256         2.219605207
    40.405904459         5.083387256         2.219605207
    49.415375759         5.083387256         2.219605207
    58.424843301         5.083387256         2.219605207
    67.434307083         5.083387256         2.219605207
    76.443778384         5.083387256         2.219605207
    85.453249685         5.083387256         2.219605207
    94.462713467         5.083387256         2.219605207
   103.472184768         5.083387256         2.219605207
   112.481648551         5.083387256         2.219605207
   121.491119851         5.083387256         2.219605207
     4.641434659         1.694462419         9.382538080
    13.650902671         1.694462419         9.382538080
    22.660370212         1.694462419         9.382538080
    31.669839633         1.694462419         9.382538080
    40.679307175         1.694462419         9.382538080
    49.688774717         1.694462419         9.382538080
    58.698242258         1.694462419         9.382538080
    67.707709800         1.694462419         9.382538080
    76.717181100         1.694462419         9.382538080
    85.726644883         1.694462419         9.382538080
    94.736116184         1.694462419         9.382538080
   103.745579966         1.694462419         9.382538080
   112.755051267         1.694462419         9.382538080
   121.764522567         1.694462419         9.382538080
     1.435289432         5.083387256        10.519083290
    10.444757561         5.083387256        10.519083290
    19.454226042         5.083387256        10.519083290
    28.463693584         5.083387256        10.519083290
    37.473163005         5.083387256        10.519083290
    46.482630547         5.083387256        10.519083290
    55.492098088         5.083387256        10.519083290
    64.501569389         5.083387256        10.519083290
    73.511033172         5.083387256        10.519083290
    82.520504472         5.083387256        10.519083290
    91.529968255         5.083387256        10.519083290
   100.539439555         5.083387256        10.519083290
   109.548903338         5.083387256        10.519083290
   118.558374639         5.083387256        10.519083290
     7.574179402         1.694462419         1.083059997
    16.583647883         1.694462419         1.083059997
    25.593115425         1.694462419         1.083059997
    34.602584846         1.694462419         1.083059997
    43.612052387         1.694462419         1.083059997
    52.621519929         1.694462419         1.083059997
    61.630987471         1.694462419         1.083059997
    70.640455012         1.694462419         1.083059997
    79.649926313         1.694462419         1.083059997
    88.659390095         1.694462419         1.083059997
    97.668861396         1.694462419         1.083059997
   106.678325179         1.694462419         1.083059997
   115.687796479         1.694462419         1.083059997
   124.697267780         1.694462419         1.083059997
     3.069444456         1.694462419         4.718012338
    12.078912233         1.694462419         4.718012338
    21.088379774         1.694462419         4.718012338
    30.097849196         1.694462419         4.718012338
    39.107316737         1.694462419         4.718012338
    48.116784279         1.694462419         4.718012338
    57.126251820         1.694462419         4.718012338
    66.135723121         1.694462419         4.718012338
    75.145186904         1.694462419         4.718012338
    84.154658204         1.694462419         4.718012338
    93.164121987         1.694462419         4.718012338
   102.173593287         1.694462419         4.718012338
   111.183064588         1.694462419         4.718012338
   120.192528371         1.694462419         4.718012338
     5.940023790         5.083387256         6.884131641
    14.949492272         5.083387256         6.884131641
    23.958959813         5.083387256         6.884131641
    32.968427355         5.083387256         6.884131641
    41.977894896         5.083387256         6.884131641
    50.987362438         5.083387256         6.884131641
    59.996833739         5.083387256         6.884131641
    69.006301280         5.083387256         6.884131641
    78.015765063         5.083387256         6.884131641
    87.025236363         5.083387256         6.884131641
    96.034707664         5.083387256         6.884131641
   105.044171447         5.083387256         6.884131641
   114.053642747         5.083387256         6.884131641
   123.063106530         5.083387256         6.884131641
     1.750269161         0.491671983         1.702544891
    10.759737172         0.491671983         1.702544891
    19.769205654         0.491671983         1.702544891
    28.778673195         0.491671983         1.702544891
    37.788140737         0.491671983         1.702544891
    46.797608279         0.491671983         1.702544891
    55.807075820         0.491671983         1.702544891
    64.816547121         0.491671983         1.702544891
    73.826010904         0.491671983         1.702544891
    82.835482204         0.491671983         1.702544891
    91.844953505         0.491671983         1.702544891
   100.854417287         0.491671983         1.702544891
   109.863888588         0.491671983         1.702544891
   118.873352371         0.491671983         1.702544891
     7.259199320         6.286177691         9.899598224
    16.268668272         6.286177691         9.899598224
    25.278135813         6.286177691         9.899598224
    34.287603355         6.286177691         9.899598224
    43.297070896         6.286177691         9.899598224
    52.306538438         6.286177691         9.899598224
    61.316005980         6.286177691         9.899598224
    70.325477280         6.286177691         9.899598224
    79.334941063         6.286177691         9.899598224
    88.344412364         6.286177691         9.899598224
    97.353883664         6.286177691         9.899598224
   106.363347447         6.286177691         9.899598224
   115.372818747         6.286177691         9.899598224
   124.382282530         6.286177691         9.899598224
     2.754464610         6.286177691         7.503616707
    11.763932621         6.286177691         7.503616707
    20.773400163         6.286177691         7.503616707
    29.782869584         6.286177691         7.503616707
    38.792335246         6.286177691         7.503616707
    47.801806547         6.286177691         7.503616707
    56.811274088         6.286177691         7.503616707
    65.820737871         6.286177691         7.503616707
    74.830209172         6.286177691         7.503616707
    83.839680472         6.286177691         7.503616707
    92.849144255         6.286177691         7.503616707
   101.858615555         6.286177691         7.503616707
   110.868079338         6.286177691         7.503616707
   119.877550639         6.286177691         7.503616707
     6.255003402         0.491671983         4.098526580
    15.264471883         0.491671983         4.098526580
    24.273939425         0.491671983         4.098526580
    33.283408846         0.491671983         4.098526580
    42.292876387         0.491671983         4.098526580
    51.302343929         0.491671983         4.098526580
    60.311811471         0.491671983         4.098526580
    69.321279012         0.491671983         4.098526580
    78.330750313         0.491671983         4.098526580
    87.340214095         0.491671983         4.098526580
    96.349685396         0.491671983         4.098526580
   105.359149179         0.491671983         4.098526580
   114.368620479         0.491671983         4.098526580
   123.378091780         0.491671983         4.098526580
     7.259199320         3.880596820         9.899598224
    16.268668272         3.880596820         9.899598224
    25.278135813         3.880596820         9.899598224
    34.287603355         3.880596820         9.899598224
    43.297070896         3.880596820         9.899598224
    52.306538438         3.880596820         9.899598224
    61.316005980         3.880596820         9.899598224
    70.325477280         3.880596820         9.899598224
    79.334941063         3.880596820         9.899598224
    88.344412364         3.880596820         9.899598224
    97.353883664         3.880596820         9.899598224
   106.363347447         3.880596820         9.899598224
   115.372818747         3.880596820         9.899598224
   124.382282530         3.880596820         9.899598224
     1.750269161         2.897252854         1.702544891
    10.759737172         2.897252854         1.702544891
    19.769205654         2.897252854         1.702544891
    28.778673195         2.897252854         1.702544891
    37.788140737         2.897252854         1.702544891
    46.797608279         2.897252854         1.702544891
    55.807075820         2.897252854         1.702544891
    64.816547121         2.897252854         1.702544891
    73.826010904         2.897252854         1.702544891
    82.835482204         2.897252854         1.702544891
    91.844953505         2.897252854         1.702544891
   100.854417287         2.897252854         1.702544891
   109.863888588         2.897252854         1.702544891
   118.873352371         2.897252854         1.702544891
     6.255003402         2.897252854         4.098526580
    15.264471883         2.897252854         4.098526580
    24.273939425         2.897252854         4.098526580
    33.283408846         2.897252854         4.098526580
    42.292876387         2.897252854         4.098526580
    51.302343929         2.897252854         4.098526580
    60.311811471         2.897252854         4.098526580
    69.321279012         2.897252854         4.098526580
    78.330750313         2.897252854         4.098526580
    87.340214095         2.897252854         4.098526580
    96.349685396         2.897252854         4.098526580
   105.359149179         2.897252854         4.098526580
   114.368620479         2.897252854         4.098526580
   123.378091780         2.897252854         4.098526580
     2.754464610         3.880596820         7.503616707
    11.763932621         3.880596820         7.503616707
    20.773400163         3.880596820         7.503616707
    29.782869584         3.880596820         7.503616707
    38.792335246         3.880596820         7.503616707
    47.801806547         3.880596820         7.503616707
    56.811274088         3.880596820         7.503616707
    65.820737871         3.880596820         7.503616707
    74.830209172         3.880596820         7.503616707
    83.839680472         3.880596820         7.503616707
    92.849144255         3.880596820         7.503616707
   101.858615555         3.880596820         7.503616707
   110.868079338         3.880596820         7.503616707
   119.877550639         3.880596820         7.503616707
     0.746930010         5.083387256         6.868480671
     9.756397846         5.083387256         6.868480671
    18.765866327         5.083387256         6.868480671
    27.775333869         5.083387256         6.868480671
    36.784803290         5.083387256         6.868480671
    45.794270831         5.083387256         6.868480671
    54.803738373         5.083387256         6.868480671
    63.813205915         5.083387256         6.868480671
    72.822677215         5.083387256         6.868480671
    81.832140998         5.083387256         6.868480671
    90.841612299         5.083387256         6.868480671
    99.851076081         5.083387256         6.868480671
   108.860547382         5.083387256         6.868480671
   117.870018682         5.083387256         6.868480671
     8.262538177         1.694462419         4.733662617
    17.272005719         1.694462419         4.733662617
    26.281475140         1.694462419         4.733662617
    35.290940802         1.694462419         4.733662617
    44.300412103         1.694462419         4.733662617
    53.309879644         1.694462419         4.733662617
    62.319347186         1.694462419         4.733662617
    71.328818487         1.694462419         4.733662617
    80.338282269         1.694462419         4.733662617
    89.347753570         1.694462419         4.733662617
    98.357217352         1.694462419         4.733662617
   107.366688653         1.694462419         4.733662617
   116.376152436         1.694462419         4.733662617
   125.385623736         1.694462419         4.733662617
     3.757804406         1.694462419         1.067408336
    12.767272888         1.694462419         1.067408336
    21.776741369         1.694462419         1.067408336
    30.786208911         1.694462419         1.067408336
    39.795676452         1.694462419         1.067408336
    48.805143994         1.694462419         1.067408336
    57.814611536         1.694462419         1.067408336
    66.824079077         1.694462419         1.067408336
    75.833550378         1.694462419         1.067408336
    84.843014160         1.694462419         1.067408336
    93.852485461         1.694462419         1.067408336
   102.861956762         1.694462419         1.067408336
   111.871420544         1.694462419         1.067408336
   120.880891845         1.694462419         1.067408336
     5.251664075         5.083387256        10.534734952
    14.261132556         5.083387256        10.534734952
    23.270600098         5.083387256        10.534734952
    32.280067640         5.083387256        10.534734952
    41.289535181         5.083387256        10.534734952
    50.299002723         5.083387256        10.534734952
    59.308474023         5.083387256        10.534734952
    68.317937806         5.083387256        10.534734952
    77.327409107         5.083387256        10.534734952
    86.336880407         5.083387256        10.534734952
    95.346344190         5.083387256        10.534734952
   104.355815490         5.083387256        10.534734952
   113.365279273         5.083387256        10.534734952
   122.374750574         5.083387256        10.534734952
     1.781117865         1.694462419        11.218576265
    10.790585759         1.694462419        11.218576265
    19.800054240         1.694462419        11.218576265
    28.809521782         1.694462419        11.218576265
    37.818991203         1.694462419        11.218576265
    46.828458745         1.694462419        11.218576265
    55.837926286         1.694462419        11.218576265
    64.847393828         1.694462419        11.218576265
    73.856865129         1.694462419        11.218576265
    82.866328911         1.694462419        11.218576265
    91.875800212         1.694462419        11.218576265
   100.885263994         1.694462419        11.218576265
   109.894735295         1.694462419        11.218576265
   118.904206596         1.694462419        11.218576265
     7.228349794         5.083387256         0.383567022
    16.237817806         5.083387256         0.383567022
    25.247285347         5.083387256         0.383567022
    34.256752889         5.083387256         0.383567022
    43.266220430         5.083387256         0.383567022
    52.275691731         5.083387256         0.383567022
    61.285159273         5.083387256         0.383567022
    70.294623055         5.083387256         0.383567022
    79.304094356         5.083387256         0.383567022
    88.313565657         5.083387256         0.383567022
    97.323029439         5.083387256         0.383567022
   106.332500740         5.083387256         0.383567022
   115.341964522         5.083387256         0.383567022
   124.351435823         5.083387256         0.383567022
     2.723616493         5.083387256         5.417503930
    11.733084975         5.083387256         5.417503930
    20.742553456         5.083387256         5.417503930
    29.752020998         5.083387256         5.417503930
    38.761488539         5.083387256         5.417503930
    47.770956081         5.083387256         5.417503930
    56.780423622         5.083387256         5.417503930
    65.789891164         5.083387256         5.417503930
    74.799362465         5.083387256         5.417503930
    83.808826247         5.083387256         5.417503930
    92.818297548         5.083387256         5.417503930
   101.827768848         5.083387256         5.417503930
   110.837232631         5.083387256         5.417503930
   119.846703932         5.083387256         5.417503930
     6.285851518         1.694462419         6.184638666
    15.295319530         1.694462419         6.184638666
    24.304788011         1.694462419         6.184638666
    33.314255553         1.694462419         6.184638666
    42.323723094         1.694462419         6.184638666
    51.333190636         1.694462419         6.184638666
    60.342658178         1.694462419         6.184638666
    69.352125719         1.694462419         6.184638666
    78.361597020         1.694462419         6.184638666
    87.371060802         1.694462419         6.184638666
    96.380532103         1.694462419         6.184638666
   105.390003404         1.694462419         6.184638666
   114.399467186         1.694462419         6.184638666
   123.408938487         1.694462419         6.184638666
