ba8 si16                                
   1.00000000000000     
    28.4413891487552064    0.0000000000000000    0.0000000000000000
     0.0000000000000000    6.6170566532374488    0.0000000000000000
     0.0000000000000000    0.0000000000000000   11.3443839645210574
   Ba   Si
    12    24
Direct
  0.0106028586602668  0.2500000000663931  0.6982713701736871
  0.1485022838761012  0.7500000176088264  0.1918319936237377
  0.1630492431119568  0.2500000000663931  0.8089665183667097
  0.3254440696680632  0.2500000000663931  0.6918320553494023
  0.3108971103971352  0.7500000176088264  0.3089664772406882
  0.4633434959359981  0.7500000176088264  0.1982713084480225
  0.0679372133787649  0.7500000176088264  0.9114617777190537
  0.1091364552101024  0.2500000000663931  0.3954319915371148
  0.2103942042689222  0.7500000176088264  0.5949662809129431
  0.3648098983340621  0.7500000176088264  0.8954319093238601
  0.2635521492752423  0.2500000000663931  0.0949663014134652
  0.4060091401653994  0.2500000000663931  0.4114618599323089
  0.0555984903027874  0.0693029209233925  0.1472228125225344
  0.0982937282382503  0.9304243308201615  0.6404862098425955
  0.2171647489285128  0.0670886496125659  0.3529151339536949
  0.0555984903027874  0.4306970702094887  0.1472228125225344
  0.2171647489285128  0.4329113415203155  0.3529151339536949
  0.0982937282382503  0.5695756691355717  0.6404862098425955
  0.3756526419993482  0.0695756602979621  0.1404861893162166
  0.2567816046156587  0.9329113415055575  0.8529151339666271
  0.4183478465128704  0.9306970701947311  0.6472228330489135
  0.2567816046156587  0.5670886584501756  0.8529151339666271
  0.3756526419993482  0.4304243308349193  0.1404861893162166
  0.4183478465128704  0.5693029297610021  0.6472228330489135
  0.0239520926393525  0.7500000176088264  0.6173165781128099
  0.1273731721281794  0.2500000000663931  0.0826082302882736
  0.1870544460695986  0.7500000176088264  0.9092734446925266
  0.3465731897627091  0.7500000176088264  0.5826082919277498
  0.2868919074745659  0.2500000000663931  0.4092734035665049
  0.4499942546623102  0.2500000000663931  0.1173165164733341
  0.0557395817483429  0.2500000000663931  0.9627439722635386
  0.0815894867147787  0.7500000176088264  0.4588761001599583
  0.2191184937291918  0.2500000000663931  0.5373923458633189
  0.3923568835578923  0.2500000000663931  0.9588761823128810
  0.2548278598149796  0.7500000176088264  0.0373923612785719
  0.4182067508939563  0.7500000176088264  0.4627438901106159
 
  0.00000000E+00  0.00000000E+00  0.00000000E+00
  0.00000000E+00  0.00000000E+00  0.00000000E+00
  0.00000000E+00  0.00000000E+00  0.00000000E+00
  0.00000000E+00  0.00000000E+00  0.00000000E+00
  0.00000000E+00  0.00000000E+00  0.00000000E+00
  0.00000000E+00  0.00000000E+00  0.00000000E+00
  0.00000000E+00  0.00000000E+00  0.00000000E+00
  0.00000000E+00  0.00000000E+00  0.00000000E+00
  0.00000000E+00  0.00000000E+00  0.00000000E+00
  0.00000000E+00  0.00000000E+00  0.00000000E+00
  0.00000000E+00  0.00000000E+00  0.00000000E+00
  0.00000000E+00  0.00000000E+00  0.00000000E+00
  0.00000000E+00  0.00000000E+00  0.00000000E+00
  0.00000000E+00  0.00000000E+00  0.00000000E+00
  0.00000000E+00  0.00000000E+00  0.00000000E+00
  0.00000000E+00  0.00000000E+00  0.00000000E+00
  0.00000000E+00  0.00000000E+00  0.00000000E+00
  0.00000000E+00  0.00000000E+00  0.00000000E+00
  0.00000000E+00  0.00000000E+00  0.00000000E+00
  0.00000000E+00  0.00000000E+00  0.00000000E+00
  0.00000000E+00  0.00000000E+00  0.00000000E+00
  0.00000000E+00  0.00000000E+00  0.00000000E+00
  0.00000000E+00  0.00000000E+00  0.00000000E+00
  0.00000000E+00  0.00000000E+00  0.00000000E+00
  0.00000000E+00  0.00000000E+00  0.00000000E+00
  0.00000000E+00  0.00000000E+00  0.00000000E+00
  0.00000000E+00  0.00000000E+00  0.00000000E+00
  0.00000000E+00  0.00000000E+00  0.00000000E+00
  0.00000000E+00  0.00000000E+00  0.00000000E+00
  0.00000000E+00  0.00000000E+00  0.00000000E+00
  0.00000000E+00  0.00000000E+00  0.00000000E+00
  0.00000000E+00  0.00000000E+00  0.00000000E+00
  0.00000000E+00  0.00000000E+00  0.00000000E+00
  0.00000000E+00  0.00000000E+00  0.00000000E+00
  0.00000000E+00  0.00000000E+00  0.00000000E+00
  0.00000000E+00  0.00000000E+00  0.00000000E+00
