ba8 si16                                
   1.00000000000000     
    28.4745998825203266    0.0000000000000000    0.0000000000000000
     0.0000000000000000    6.6169107525374828    0.0000000000000000
     0.0000000000000000    0.0000000000000000   11.3500267666976207
   Ba   Si
    12    24
Direct
  0.0107859045365344  0.2500000000663931  0.6984061924395786
  0.1486307516950365  0.7500000176088264  0.1916954077201405
  0.1632341157280932  0.2500000000663931  0.8089209527034368
  0.3253156018491278  0.2500000000663931  0.6916954694458047
  0.3107122377809988  0.7500000176088264  0.3089209115774149
  0.4631604500597307  0.7500000176088264  0.1984061307139137
  0.0681523886003764  0.7500000176088264  0.9114954625413395
  0.1092611694449495  0.2500000000663931  0.3955323327534757
  0.2104042308897535  0.7500000176088264  0.5947938094154699
  0.3646851840992150  0.7500000176088264  0.8955322505402215
  0.2635421226544106  0.2500000000663931  0.0947938299159921
  0.4057939649437878  0.2500000000663931  0.4114955447545943
  0.0558697527860308  0.0693769037070282  0.1471626714839429
  0.0985124253071120  0.9305175444858110  0.6407275616168535
  0.2171799703933472  0.0671985306678098  0.3527870863683252
  0.0558697527860308  0.4306230874258533  0.1471626714839429
  0.2171799703933472  0.4328014604650717  0.3527870863683252
  0.0985124253071120  0.5694824554699222  0.6407275616168536
  0.3754339449304865  0.0694824466323122  0.1407275410904747
  0.2567663831508243  0.9328014604503138  0.8527870863812569
  0.4180765840296268  0.9306230874110953  0.6471626920103218
  0.2567663831508243  0.5671985395054194  0.8527870863812569
  0.3754339449304865  0.4305175445005692  0.1407275410904747
  0.4180765840296268  0.5693769125446378  0.6471626920103218
  0.0242666309648829  0.7500000176088264  0.6170466961675619
  0.1275732116223193  0.2500000000663931  0.0824734015388792
  0.1871522864199974  0.7500000176088264  0.9092754015447343
  0.3463731502685690  0.7500000176088264  0.5824734631783551
  0.2867940671241667  0.2500000000663931  0.4092753604187131
  0.4496797163367798  0.2500000000663931  0.1170466345280861
  0.0560622192427034  0.2500000000663931  0.9627375593954692
  0.0820665497227542  0.7500000176088264  0.4593166060938324
  0.2191839474022715  0.2500000000663931  0.5373404550991604
  0.3918798205499167  0.2500000000663931  0.9593166882467552
  0.2547624061418998  0.7500000176088264  0.0373404705144138
  0.4178841133995958  0.7500000176088264  0.4627374772425467
 
  0.00000000E+00  0.00000000E+00  0.00000000E+00
  0.00000000E+00  0.00000000E+00  0.00000000E+00
  0.00000000E+00  0.00000000E+00  0.00000000E+00
  0.00000000E+00  0.00000000E+00  0.00000000E+00
  0.00000000E+00  0.00000000E+00  0.00000000E+00
  0.00000000E+00  0.00000000E+00  0.00000000E+00
  0.00000000E+00  0.00000000E+00  0.00000000E+00
  0.00000000E+00  0.00000000E+00  0.00000000E+00
  0.00000000E+00  0.00000000E+00  0.00000000E+00
  0.00000000E+00  0.00000000E+00  0.00000000E+00
  0.00000000E+00  0.00000000E+00  0.00000000E+00
  0.00000000E+00  0.00000000E+00  0.00000000E+00
  0.00000000E+00  0.00000000E+00  0.00000000E+00
  0.00000000E+00  0.00000000E+00  0.00000000E+00
  0.00000000E+00  0.00000000E+00  0.00000000E+00
  0.00000000E+00  0.00000000E+00  0.00000000E+00
  0.00000000E+00  0.00000000E+00  0.00000000E+00
  0.00000000E+00  0.00000000E+00  0.00000000E+00
  0.00000000E+00  0.00000000E+00  0.00000000E+00
  0.00000000E+00  0.00000000E+00  0.00000000E+00
  0.00000000E+00  0.00000000E+00  0.00000000E+00
  0.00000000E+00  0.00000000E+00  0.00000000E+00
  0.00000000E+00  0.00000000E+00  0.00000000E+00
  0.00000000E+00  0.00000000E+00  0.00000000E+00
  0.00000000E+00  0.00000000E+00  0.00000000E+00
  0.00000000E+00  0.00000000E+00  0.00000000E+00
  0.00000000E+00  0.00000000E+00  0.00000000E+00
  0.00000000E+00  0.00000000E+00  0.00000000E+00
  0.00000000E+00  0.00000000E+00  0.00000000E+00
  0.00000000E+00  0.00000000E+00  0.00000000E+00
  0.00000000E+00  0.00000000E+00  0.00000000E+00
  0.00000000E+00  0.00000000E+00  0.00000000E+00
  0.00000000E+00  0.00000000E+00  0.00000000E+00
  0.00000000E+00  0.00000000E+00  0.00000000E+00
  0.00000000E+00  0.00000000E+00  0.00000000E+00
  0.00000000E+00  0.00000000E+00  0.00000000E+00
