ba8 si16                                
   1.00000000000000     
    97.7723878892290372    0.0000000000000000    0.0648933619332906
     0.0000000000000000    6.7176545506055065    0.0000000000000000
     0.0077159016926290    0.0000000000000000   11.5041097811632209
   Ba   Si
    72   144
Direct
  0.0132735159000348  0.2500000000663931  0.7061437359406457
  0.1027181308785337  0.2500000000663931  0.6949262588249431
  0.1941344379035185  0.2500000000663931  0.6953808584503962
  0.2857463357548640  0.2500000000663931  0.6949378924064530
  0.3775047113090478  0.2500000000663931  0.6933404301630410
  0.4692867137422187  0.2500000000663931  0.6899999799720534
  0.5610077196793944  0.2500000000663931  0.6885561082678175
  0.6526098426558848  0.2500000000663931  0.6879090194219569
  0.7441657636815538  0.2500000000663931  0.6881251885564383
  0.0997228356478493  0.7500000176088264  0.3118748114694185
  0.1912787467552378  0.7500000176088264  0.3120909806038992
  0.2828808895786999  0.7500000176088264  0.3114438917580385
  0.3746018955158686  0.7500000176088264  0.3100000200538035
  0.4663838582551096  0.7500000176088264  0.3066595698628148
  0.5581422536562650  0.7500000176088264  0.3050621076194039
  0.6497541912015410  0.7500000176088264  0.3046191415754612
  0.7411704089099677  0.7500000176088264  0.3050737412009139
  0.8306151035989635  0.7500000176088264  0.2938562640852109
  0.0529896659044727  0.7500000176088264  0.1973262344061996
  0.1454627346817410  0.7500000176088264  0.1955757620525243
  0.2370466710024264  0.7500000176088264  0.1952361499039235
  0.3287369175029298  0.7500000176088264  0.1944148401394467
  0.4205324215222194  0.7500000176088264  0.1913284112383685
  0.5122979355505084  0.7500000176088264  0.1888620890469892
  0.6039700737523787  0.7500000176088264  0.1879839489536547
  0.6955548836659230  0.7500000176088264  0.1878725918278823
  0.7866628227184689  0.7500000176088264  0.1880473039960020
  0.0572257617283104  0.2500000000663931  0.8119526754302123
  0.1483336958165156  0.2500000000663931  0.8121273875983318
  0.2399185156483352  0.2500000000663931  0.8120160304725599
  0.3315906538606216  0.2500000000663931  0.8111378903792171
  0.4233561877358679  0.2500000000663931  0.8086715681878457
  0.5151516917655672  0.2500000000663931  0.8055851392867662
  0.6068419382556609  0.2500000000663931  0.8047638295222901
  0.6984258348720145  0.2500000000663931  0.8044242173736897
  0.7908988937309933  0.2500000000663931  0.8026737450200142
  0.0293680951063263  0.7500000176088264  0.9159553351924725
  0.1160440621033850  0.7500000176088264  0.9100351849185733
  0.2073623848129867  0.7500000176088264  0.9092760204374963
  0.2989728856227687  0.7500000176088264  0.9091497485814612
  0.3907194992604511  0.7500000176088264  0.9070787182019857
  0.4825164548329898  0.7500000176088264  0.9034506155610563
  0.5742392458045485  0.7500000176088264  0.9023151118874820
  0.6659059169297497  0.7500000176088264  0.9021424534583451
  0.7577415301754982  0.7500000176088264  0.9021123696062613
  0.0861470145669431  0.2500000000663931  0.0978876098199522
  0.1779826923283452  0.2500000000663931  0.0978575259678689
  0.2696493039022267  0.2500000000663931  0.0976848675387317
  0.3613721941294439  0.2500000000663931  0.0965493638651566
  0.4531690703037063  0.2500000000663931  0.0929212612242208
  0.5449157434926928  0.2500000000663931  0.0908502308447527
  0.6365261648937959  0.2500000000663931  0.0907239589887174
  0.7278445173790469  0.2500000000663931  0.0899647945076408
  0.8145204149065191  0.2500000000663931  0.0840446442337488
  0.0413608228776859  0.2500000000663931  0.3995179373767527
  0.1323068882492738  0.2500000000663931  0.4090116315817283
  0.2238126359892478  0.2500000000663931  0.4091900377437381
  0.3154684899002632  0.2500000000663931  0.4089634706560567
  0.4072527911107444  0.2500000000663931  0.4066571107178268
  0.4990947453649747  0.2500000000663931  0.4030895833711303
  0.5907162914840923  0.2500000000663931  0.4024398866825024
  0.6822985741879860  0.2500000000663931  0.4022255260240091
  0.7734383068101465  0.2500000000663931  0.4002458837716278
  0.0704502478609858  0.7500000176088264  0.5997541573673195
  0.1615899755187972  0.7500000176088264  0.5977745151149373
  0.2531723177739951  0.7500000176088264  0.5975601544564442
  0.3447938638931126  0.7500000176088264  0.5969104577678161
  0.4366358181473500  0.7500000176088264  0.5933429304211197
  0.5284200995108521  0.7500000176088264  0.5910365704828973
  0.6200759732688461  0.7500000176088264  0.5908100033952084
  0.7115817011618490  0.7500000176088264  0.5909884095572174
  0.8025277665230269  0.7500000176088264  0.6004821037621931
  0.0265564634764645  0.0720904241994073  0.1484248259691722
  0.1187179408464757  0.0706091448210562  0.1496857277684221
  0.2102839687384699  0.0704682562663353  0.1494635708830401
  0.3020024881532118  0.0705734755755234  0.1491366926870500
  0.3937344284748732  0.0705200806317249  0.1470822549489586
  0.4855094897352462  0.0703960683226612  0.1437057489694914
  0.5772310075635333  0.0704459708793349  0.1426544089710058
  0.6688403747516972  0.0704599840871468  0.1423654532459632
  0.7598241548191820  0.0701614090721872  0.1411321222145979
  0.0840644643675968  0.9298385820459361  0.8588678572978120
  0.1750482345063897  0.9295400070309757  0.8576345262664462
  0.2666576215519291  0.9295540202387818  0.8573455705414034
  0.3583791195228482  0.9296039227954624  0.8562942305429185
  0.4501541410892841  0.9294799104863984  0.8529177245634509
  0.5418861211048822  0.9294265155425996  0.8508632868253601
  0.6336045809683131  0.9295317348517880  0.8505364086293700
  0.7251706584829275  0.9293908462970665  0.8503142517439880
  0.8173320514903204  0.9279095669187164  0.8515751535432379
  0.0381877655334359  0.9281088716794027  0.6463802645610275
  0.1292999713875373  0.9293823497531749  0.6491075244221647
  0.2208593784901771  0.9295806757175333  0.6494853710843494
  0.3124433310535568  0.9293770436697411  0.6489754499278327
  0.4042907281738350  0.9293550561394512  0.6469235996572710
  0.4960744513954894  0.9296299027031566  0.6432610037077944
  0.5877369536650277  0.9295740774843401  0.6423620156434411
  0.6792965234956965  0.9295773199382192  0.6421757964358991
  0.7709258282079180  0.9302162902387461  0.6420559583049594
  0.0729627264632143  0.0697837008793771  0.3579440417208970
  0.1645920361397702  0.0704226711799044  0.3578242035899505
  0.2561516555930668  0.0704259136337832  0.3576379843824163
  0.3478141578730073  0.0703700884149670  0.3567389963180558
  0.4395978413799129  0.0706449349786715  0.3530764003685855
  0.5314452583575647  0.0706229474483822  0.3510245500980239
  0.6230291910635712  0.0704193154005901  0.3505146289415076
  0.7145886080949084  0.0706176413649489  0.3508924756036915
  0.8057008189133440  0.0718911194387208  0.3536197354648293
  0.0840644643675968  0.5701614179097971  0.8588678572978120
  0.1750482345063897  0.5704599929247575  0.8576345262664462
  0.2666576215519291  0.5704459797169514  0.8573455705414034
  0.3583791195228482  0.5703960771602707  0.8562942305429185
  0.4501541410892841  0.5705200894693347  0.8529177245634509
  0.5418861211048822  0.5705734844131336  0.8508632868253601
  0.6336045809683131  0.5704682651039452  0.8505364086293700
  0.7251706584829275  0.5706091536586667  0.8503142517439880
  0.8173320514903204  0.5720904330370168  0.8515751535432379
  0.0265564634764645  0.4279095669334742  0.1484248259691722
  0.1187179408464757  0.4293908463118252  0.1496857277684221
  0.2102839687384699  0.4295317348665460  0.1494635708830401
  0.3020024881532118  0.4294265155573577  0.1491366926870500
  0.3937344284748732  0.4294799105011565  0.1470822549489586
  0.4855094897352462  0.4296039228102199  0.1437057489694914
  0.5772310075635333  0.4295540202535464  0.1426544089710058
  0.6688403747516972  0.4295400070457346  0.1423654532459632
  0.7598241548191820  0.4298385820606940  0.1411321222145979
  0.0729627264632143  0.4302162902535042  0.3579440417208970
  0.1645920361397702  0.4295773199529770  0.3578242035899505
  0.2561516555930667  0.4295740774990981  0.3576379843824163
  0.3478141578730073  0.4296299027179140  0.3567389963180558
  0.4395978413799129  0.4293550561542099  0.3530764003685855
  0.5314452583575647  0.4293770436844992  0.3510245500980239
  0.6230291910635712  0.4295806757322916  0.3505146289415076
  0.7145886080949084  0.4293823497679327  0.3508924756036915
  0.8057008189133440  0.4281088716941608  0.3536197354648293
  0.0381877655334359  0.5718911282763305  0.6463802645610275
  0.1292999713875373  0.5706176502025583  0.6491075244221647
  0.2208593784901771  0.5704193242381999  0.6494853710843494
  0.3124433310535568  0.5706229562859921  0.6489754499278327
  0.4042907281738350  0.5706449438162819  0.6469235996572710
  0.4960744513954894  0.5703700972525766  0.6432610037077944
  0.5877369536650277  0.5704259224713931  0.6423620156434411
  0.6792965234956965  0.5704226800175140  0.6421757964358991
  0.7709258282079180  0.5697837097169871  0.6420559583049594
  0.0165429672081214  0.7500000176088264  0.6236377291055910
  0.1087465548101703  0.7500000176088264  0.5951759705929938
  0.2003360795793731  0.7500000176088264  0.5948820611367317
  0.2918767497217994  0.7500000176088264  0.5946092020040759
  0.3837348406832404  0.7500000176088264  0.5925631873065835
  0.4755251934824591  0.7500000176088264  0.5889333023968346
  0.5671842287743551  0.7500000176088264  0.5879255128995474
  0.6587697751673580  0.7500000176088264  0.5872859931105424
  0.7504432691443187  0.7500000176088264  0.5876310642829724
  0.0934453301850849  0.2500000000663931  0.4123689356566959
  0.1851187745394254  0.2500000000663931  0.4127140068291250
  0.2767043209324217  0.2500000000663931  0.4120744870401211
  0.3683634157756281  0.2500000000663931  0.4110666975428333
  0.4601537685748469  0.2500000000663931  0.4074368126330840
  0.5520118396893237  0.2500000000663931  0.4053907979355917
  0.6435525098317493  0.2500000000663931  0.4051179388029358
  0.7351420643766083  0.2500000000663931  0.4048240293466736
  0.8273455707174512  0.2500000000663931  0.3763622708340770
  0.0475206101818693  0.2500000000663931  0.0861476370631863
  0.1392900351314313  0.2500000000663931  0.0952874305148923
  0.2308263965632823  0.2500000000663931  0.0949399162316161
  0.3225537716522847  0.2500000000663931  0.0942245981880883
  0.4142625886314622  0.2500000000663931  0.0915636167426093
  0.5060530876804907  0.2500000000663931  0.0887552371527907
  0.5977820382581541  0.2500000000663931  0.0876772343365532
  0.6893679743348327  0.2500000000663931  0.0873458973313627
  0.7802148253382480  0.2500000000663931  0.0865286591342023
  0.0636737491902503  0.7500000176088264  0.9134713202920112
  0.1545206051476059  0.7500000176088264  0.9126540820948442
  0.2461065511529692  0.7500000176088264  0.9123227450896606
  0.3378354818836674  0.7500000176088264  0.9112447422734230
  0.4296259809222857  0.7500000176088264  0.9084363626835973
  0.5213348376058029  0.7500000176088264  0.9057753812381253
  0.6130621928374380  0.7500000176088264  0.9050600631945976
  0.7045985245040420  0.7500000176088264  0.9047125489113215
  0.7963679519305636  0.7500000176088264  0.9138523423630266
  0.0267873167658984  0.2500000000663931  0.9663940362585335
  0.1190954705825088  0.2500000000663931  0.9684667312953064
  0.2106394866522822  0.2500000000663931  0.9681694629102169
  0.3023385392881299  0.2500000000663931  0.9677459333051055
  0.3940274484893856  0.2500000000663931  0.9655671481263073
  0.4858656141361380  0.2500000000663931  0.9622561688628576
  0.5775945058396476  0.2500000000663931  0.9611934039339405
  0.6691662835543424  0.2500000000663931  0.9609489811166961
  0.7605350377396499  0.2500000000663931  0.9591531817290921
  0.0833535566358138  0.7500000176088264  0.0408468336387546
  0.1747223257141614  0.7500000176088264  0.0390510342511494
  0.2662940438671353  0.7500000176088264  0.0388066114339056
  0.3580229554280194  0.7500000176088264  0.0377438465049886
  0.4498611210747718  0.7500000176088264  0.0344328672415381
  0.5415500699699571  0.7500000176088264  0.0322540820627402
  0.6332491027588470  0.7500000176088264  0.0318305524576285
  0.7247931585329533  0.7500000176088264  0.0315332840725394
  0.8171013073852209  0.7500000176088264  0.0336059791093126
  0.0333933475329343  0.7500000176088264  0.4669058178730990
  0.1288913675253266  0.7500000176088264  0.4677065586189986
  0.2205812741466197  0.7500000176088264  0.4681872717916933
  0.3120780168449539  0.7500000176088264  0.4675635643067427
  0.4039236818662575  0.7500000176088264  0.4653665547481842
  0.4957064874683937  0.7500000176088264  0.4618358273053154
  0.5873868681166544  0.7500000176088264  0.4610106059959961
  0.6790034961360724  0.7500000176088264  0.4607788130886228
  0.7705645302600789  0.7500000176088264  0.4605865601086200
  0.0733240541867016  0.2500000000663931  0.5394133576910499
  0.1648850833463590  0.2500000000663931  0.5392211047110478
  0.2565017014370933  0.2500000000663931  0.5389893118036740
  0.3481821217896935  0.2500000000663931  0.5381640904943548
  0.4399648876874975  0.2500000000663931  0.5346333630514796
  0.5318105924235429  0.2500000000663931  0.5324363534929273
  0.6233073152645028  0.2500000000663931  0.5318126460079774
  0.7149971921101395  0.2500000000663931  0.5322933591806713
  0.8104952096255734  0.2500000000663931  0.5330940999265709
 
  0.00000000E+00  0.00000000E+00  0.00000000E+00
  0.00000000E+00  0.00000000E+00  0.00000000E+00
  0.00000000E+00  0.00000000E+00  0.00000000E+00
  0.00000000E+00  0.00000000E+00  0.00000000E+00
  0.00000000E+00  0.00000000E+00  0.00000000E+00
  0.00000000E+00  0.00000000E+00  0.00000000E+00
  0.00000000E+00  0.00000000E+00  0.00000000E+00
  0.00000000E+00  0.00000000E+00  0.00000000E+00
  0.00000000E+00  0.00000000E+00  0.00000000E+00
  0.00000000E+00  0.00000000E+00  0.00000000E+00
  0.00000000E+00  0.00000000E+00  0.00000000E+00
  0.00000000E+00  0.00000000E+00  0.00000000E+00
  0.00000000E+00  0.00000000E+00  0.00000000E+00
  0.00000000E+00  0.00000000E+00  0.00000000E+00
  0.00000000E+00  0.00000000E+00  0.00000000E+00
  0.00000000E+00  0.00000000E+00  0.00000000E+00
  0.00000000E+00  0.00000000E+00  0.00000000E+00
  0.00000000E+00  0.00000000E+00  0.00000000E+00
  0.00000000E+00  0.00000000E+00  0.00000000E+00
  0.00000000E+00  0.00000000E+00  0.00000000E+00
  0.00000000E+00  0.00000000E+00  0.00000000E+00
  0.00000000E+00  0.00000000E+00  0.00000000E+00
  0.00000000E+00  0.00000000E+00  0.00000000E+00
  0.00000000E+00  0.00000000E+00  0.00000000E+00
  0.00000000E+00  0.00000000E+00  0.00000000E+00
  0.00000000E+00  0.00000000E+00  0.00000000E+00
  0.00000000E+00  0.00000000E+00  0.00000000E+00
  0.00000000E+00  0.00000000E+00  0.00000000E+00
  0.00000000E+00  0.00000000E+00  0.00000000E+00
  0.00000000E+00  0.00000000E+00  0.00000000E+00
  0.00000000E+00  0.00000000E+00  0.00000000E+00
  0.00000000E+00  0.00000000E+00  0.00000000E+00
  0.00000000E+00  0.00000000E+00  0.00000000E+00
  0.00000000E+00  0.00000000E+00  0.00000000E+00
  0.00000000E+00  0.00000000E+00  0.00000000E+00
  0.00000000E+00  0.00000000E+00  0.00000000E+00
  0.00000000E+00  0.00000000E+00  0.00000000E+00
  0.00000000E+00  0.00000000E+00  0.00000000E+00
  0.00000000E+00  0.00000000E+00  0.00000000E+00
  0.00000000E+00  0.00000000E+00  0.00000000E+00
  0.00000000E+00  0.00000000E+00  0.00000000E+00
  0.00000000E+00  0.00000000E+00  0.00000000E+00
  0.00000000E+00  0.00000000E+00  0.00000000E+00
  0.00000000E+00  0.00000000E+00  0.00000000E+00
  0.00000000E+00  0.00000000E+00  0.00000000E+00
  0.00000000E+00  0.00000000E+00  0.00000000E+00
  0.00000000E+00  0.00000000E+00  0.00000000E+00
  0.00000000E+00  0.00000000E+00  0.00000000E+00
  0.00000000E+00  0.00000000E+00  0.00000000E+00
  0.00000000E+00  0.00000000E+00  0.00000000E+00
  0.00000000E+00  0.00000000E+00  0.00000000E+00
  0.00000000E+00  0.00000000E+00  0.00000000E+00
  0.00000000E+00  0.00000000E+00  0.00000000E+00
  0.00000000E+00  0.00000000E+00  0.00000000E+00
  0.00000000E+00  0.00000000E+00  0.00000000E+00
  0.00000000E+00  0.00000000E+00  0.00000000E+00
  0.00000000E+00  0.00000000E+00  0.00000000E+00
  0.00000000E+00  0.00000000E+00  0.00000000E+00
  0.00000000E+00  0.00000000E+00  0.00000000E+00
  0.00000000E+00  0.00000000E+00  0.00000000E+00
  0.00000000E+00  0.00000000E+00  0.00000000E+00
  0.00000000E+00  0.00000000E+00  0.00000000E+00
  0.00000000E+00  0.00000000E+00  0.00000000E+00
  0.00000000E+00  0.00000000E+00  0.00000000E+00
  0.00000000E+00  0.00000000E+00  0.00000000E+00
  0.00000000E+00  0.00000000E+00  0.00000000E+00
  0.00000000E+00  0.00000000E+00  0.00000000E+00
  0.00000000E+00  0.00000000E+00  0.00000000E+00
  0.00000000E+00  0.00000000E+00  0.00000000E+00
  0.00000000E+00  0.00000000E+00  0.00000000E+00
  0.00000000E+00  0.00000000E+00  0.00000000E+00
  0.00000000E+00  0.00000000E+00  0.00000000E+00
  0.00000000E+00  0.00000000E+00  0.00000000E+00
  0.00000000E+00  0.00000000E+00  0.00000000E+00
  0.00000000E+00  0.00000000E+00  0.00000000E+00
  0.00000000E+00  0.00000000E+00  0.00000000E+00
  0.00000000E+00  0.00000000E+00  0.00000000E+00
  0.00000000E+00  0.00000000E+00  0.00000000E+00
  0.00000000E+00  0.00000000E+00  0.00000000E+00
  0.00000000E+00  0.00000000E+00  0.00000000E+00
  0.00000000E+00  0.00000000E+00  0.00000000E+00
  0.00000000E+00  0.00000000E+00  0.00000000E+00
  0.00000000E+00  0.00000000E+00  0.00000000E+00
  0.00000000E+00  0.00000000E+00  0.00000000E+00
  0.00000000E+00  0.00000000E+00  0.00000000E+00
  0.00000000E+00  0.00000000E+00  0.00000000E+00
  0.00000000E+00  0.00000000E+00  0.00000000E+00
  0.00000000E+00  0.00000000E+00  0.00000000E+00
  0.00000000E+00  0.00000000E+00  0.00000000E+00
  0.00000000E+00  0.00000000E+00  0.00000000E+00
  0.00000000E+00  0.00000000E+00  0.00000000E+00
  0.00000000E+00  0.00000000E+00  0.00000000E+00
  0.00000000E+00  0.00000000E+00  0.00000000E+00
  0.00000000E+00  0.00000000E+00  0.00000000E+00
  0.00000000E+00  0.00000000E+00  0.00000000E+00
  0.00000000E+00  0.00000000E+00  0.00000000E+00
  0.00000000E+00  0.00000000E+00  0.00000000E+00
  0.00000000E+00  0.00000000E+00  0.00000000E+00
  0.00000000E+00  0.00000000E+00  0.00000000E+00
  0.00000000E+00  0.00000000E+00  0.00000000E+00
  0.00000000E+00  0.00000000E+00  0.00000000E+00
  0.00000000E+00  0.00000000E+00  0.00000000E+00
  0.00000000E+00  0.00000000E+00  0.00000000E+00
  0.00000000E+00  0.00000000E+00  0.00000000E+00
  0.00000000E+00  0.00000000E+00  0.00000000E+00
  0.00000000E+00  0.00000000E+00  0.00000000E+00
  0.00000000E+00  0.00000000E+00  0.00000000E+00
  0.00000000E+00  0.00000000E+00  0.00000000E+00
  0.00000000E+00  0.00000000E+00  0.00000000E+00
  0.00000000E+00  0.00000000E+00  0.00000000E+00
  0.00000000E+00  0.00000000E+00  0.00000000E+00
  0.00000000E+00  0.00000000E+00  0.00000000E+00
  0.00000000E+00  0.00000000E+00  0.00000000E+00
  0.00000000E+00  0.00000000E+00  0.00000000E+00
  0.00000000E+00  0.00000000E+00  0.00000000E+00
  0.00000000E+00  0.00000000E+00  0.00000000E+00
  0.00000000E+00  0.00000000E+00  0.00000000E+00
  0.00000000E+00  0.00000000E+00  0.00000000E+00
  0.00000000E+00  0.00000000E+00  0.00000000E+00
  0.00000000E+00  0.00000000E+00  0.00000000E+00
  0.00000000E+00  0.00000000E+00  0.00000000E+00
  0.00000000E+00  0.00000000E+00  0.00000000E+00
  0.00000000E+00  0.00000000E+00  0.00000000E+00
  0.00000000E+00  0.00000000E+00  0.00000000E+00
  0.00000000E+00  0.00000000E+00  0.00000000E+00
  0.00000000E+00  0.00000000E+00  0.00000000E+00
  0.00000000E+00  0.00000000E+00  0.00000000E+00
  0.00000000E+00  0.00000000E+00  0.00000000E+00
  0.00000000E+00  0.00000000E+00  0.00000000E+00
  0.00000000E+00  0.00000000E+00  0.00000000E+00
  0.00000000E+00  0.00000000E+00  0.00000000E+00
  0.00000000E+00  0.00000000E+00  0.00000000E+00
  0.00000000E+00  0.00000000E+00  0.00000000E+00
  0.00000000E+00  0.00000000E+00  0.00000000E+00
  0.00000000E+00  0.00000000E+00  0.00000000E+00
  0.00000000E+00  0.00000000E+00  0.00000000E+00
  0.00000000E+00  0.00000000E+00  0.00000000E+00
  0.00000000E+00  0.00000000E+00  0.00000000E+00
  0.00000000E+00  0.00000000E+00  0.00000000E+00
  0.00000000E+00  0.00000000E+00  0.00000000E+00
  0.00000000E+00  0.00000000E+00  0.00000000E+00
  0.00000000E+00  0.00000000E+00  0.00000000E+00
  0.00000000E+00  0.00000000E+00  0.00000000E+00
  0.00000000E+00  0.00000000E+00  0.00000000E+00
  0.00000000E+00  0.00000000E+00  0.00000000E+00
  0.00000000E+00  0.00000000E+00  0.00000000E+00
  0.00000000E+00  0.00000000E+00  0.00000000E+00
  0.00000000E+00  0.00000000E+00  0.00000000E+00
  0.00000000E+00  0.00000000E+00  0.00000000E+00
  0.00000000E+00  0.00000000E+00  0.00000000E+00
  0.00000000E+00  0.00000000E+00  0.00000000E+00
  0.00000000E+00  0.00000000E+00  0.00000000E+00
  0.00000000E+00  0.00000000E+00  0.00000000E+00
  0.00000000E+00  0.00000000E+00  0.00000000E+00
  0.00000000E+00  0.00000000E+00  0.00000000E+00
  0.00000000E+00  0.00000000E+00  0.00000000E+00
  0.00000000E+00  0.00000000E+00  0.00000000E+00
  0.00000000E+00  0.00000000E+00  0.00000000E+00
  0.00000000E+00  0.00000000E+00  0.00000000E+00
  0.00000000E+00  0.00000000E+00  0.00000000E+00
  0.00000000E+00  0.00000000E+00  0.00000000E+00
  0.00000000E+00  0.00000000E+00  0.00000000E+00
  0.00000000E+00  0.00000000E+00  0.00000000E+00
  0.00000000E+00  0.00000000E+00  0.00000000E+00
  0.00000000E+00  0.00000000E+00  0.00000000E+00
  0.00000000E+00  0.00000000E+00  0.00000000E+00
  0.00000000E+00  0.00000000E+00  0.00000000E+00
  0.00000000E+00  0.00000000E+00  0.00000000E+00
  0.00000000E+00  0.00000000E+00  0.00000000E+00
  0.00000000E+00  0.00000000E+00  0.00000000E+00
  0.00000000E+00  0.00000000E+00  0.00000000E+00
  0.00000000E+00  0.00000000E+00  0.00000000E+00
  0.00000000E+00  0.00000000E+00  0.00000000E+00
  0.00000000E+00  0.00000000E+00  0.00000000E+00
  0.00000000E+00  0.00000000E+00  0.00000000E+00
  0.00000000E+00  0.00000000E+00  0.00000000E+00
  0.00000000E+00  0.00000000E+00  0.00000000E+00
  0.00000000E+00  0.00000000E+00  0.00000000E+00
  0.00000000E+00  0.00000000E+00  0.00000000E+00
  0.00000000E+00  0.00000000E+00  0.00000000E+00
  0.00000000E+00  0.00000000E+00  0.00000000E+00
  0.00000000E+00  0.00000000E+00  0.00000000E+00
  0.00000000E+00  0.00000000E+00  0.00000000E+00
  0.00000000E+00  0.00000000E+00  0.00000000E+00
  0.00000000E+00  0.00000000E+00  0.00000000E+00
  0.00000000E+00  0.00000000E+00  0.00000000E+00
  0.00000000E+00  0.00000000E+00  0.00000000E+00
  0.00000000E+00  0.00000000E+00  0.00000000E+00
  0.00000000E+00  0.00000000E+00  0.00000000E+00
  0.00000000E+00  0.00000000E+00  0.00000000E+00
  0.00000000E+00  0.00000000E+00  0.00000000E+00
  0.00000000E+00  0.00000000E+00  0.00000000E+00
  0.00000000E+00  0.00000000E+00  0.00000000E+00
  0.00000000E+00  0.00000000E+00  0.00000000E+00
  0.00000000E+00  0.00000000E+00  0.00000000E+00
  0.00000000E+00  0.00000000E+00  0.00000000E+00
  0.00000000E+00  0.00000000E+00  0.00000000E+00
  0.00000000E+00  0.00000000E+00  0.00000000E+00
  0.00000000E+00  0.00000000E+00  0.00000000E+00
  0.00000000E+00  0.00000000E+00  0.00000000E+00
  0.00000000E+00  0.00000000E+00  0.00000000E+00
  0.00000000E+00  0.00000000E+00  0.00000000E+00
  0.00000000E+00  0.00000000E+00  0.00000000E+00
  0.00000000E+00  0.00000000E+00  0.00000000E+00
  0.00000000E+00  0.00000000E+00  0.00000000E+00
  0.00000000E+00  0.00000000E+00  0.00000000E+00
  0.00000000E+00  0.00000000E+00  0.00000000E+00
  0.00000000E+00  0.00000000E+00  0.00000000E+00
  0.00000000E+00  0.00000000E+00  0.00000000E+00
  0.00000000E+00  0.00000000E+00  0.00000000E+00
  0.00000000E+00  0.00000000E+00  0.00000000E+00
  0.00000000E+00  0.00000000E+00  0.00000000E+00
  0.00000000E+00  0.00000000E+00  0.00000000E+00
  0.00000000E+00  0.00000000E+00  0.00000000E+00
  0.00000000E+00  0.00000000E+00  0.00000000E+00
  0.00000000E+00  0.00000000E+00  0.00000000E+00
