ba8 si16                                
   1.00000000000000     
    95.1783672389181987    0.0000000000000000    0.0072848105280734
     0.0000000000000000    6.7049731512889448    0.0000000000000000
     0.0008623274800183    0.0000000000000000   11.4784960799219800
   Ba   Si
    72   144
Direct
  0.0033874215676832  0.2500000000663931  0.7014240182328059
  0.0952995802963403  0.2500000000663931  0.6904817096498038
  0.1889628100895983  0.2500000000663931  0.6915476119494388
  0.2827407411265326  0.2500000000663931  0.6916565437374734
  0.3765258734935819  0.2500000000663931  0.6913050200027483
  0.4703455781020702  0.2500000000663931  0.6917003051951317
  0.5641208710545099  0.2500000000663931  0.6915990736668811
  0.6579243165694946  0.2500000000663931  0.6914899187842922
  0.7516719945622324  0.2500000000663931  0.6923541899551058
  0.0922166047671708  0.7500000176088264  0.3076458100707509
  0.1859642728416275  0.7500000176088264  0.3085100812415644
  0.2797677382035846  0.7500000176088264  0.3084009263589753
  0.3735430311560171  0.7500000176088264  0.3082996948307250
  0.4673626960705755  0.7500000176088264  0.3086949800231077
  0.5611478482845970  0.7500000176088264  0.3083434562883833
  0.6549258190154614  0.7500000176088264  0.3084523880764177
  0.7485889594921614  0.7500000176088264  0.3095182903760528
  0.8405011979313143  0.7500000176088264  0.2985759817930508
  0.0442699085733234  0.7500000176088264  0.1928853649945236
  0.1390851393215749  0.7500000176088264  0.1912431421877099
  0.2328352581222858  0.7500000176088264  0.1916878380299159
  0.3266533104545959  0.7500000176088264  0.1913410906247255
  0.4204603165439168  0.7500000176088264  0.1916253193029916
  0.5142439866728503  0.7500000176088264  0.1917475964617327
  0.6080621706866454  0.7500000176088264  0.1915053277356666
  0.7018231961450181  0.7500000176088264  0.1917873501891748
  0.7952665909524795  0.7500000176088264  0.1915904022611837
  0.0486219934943013  0.2500000000663931  0.8084095771650301
  0.1420653833374207  0.2500000000663931  0.8082126292370391
  0.2358264187140672  0.2500000000663931  0.8084946516905475
  0.3296446027382787  0.2500000000663931  0.8082523829644809
  0.4234282927141705  0.2500000000663931  0.8083746601232216
  0.5172352988139007  0.2500000000663931  0.8086588888014876
  0.6110533511358015  0.2500000000663931  0.8083121413962979
  0.7048034302321804  0.2500000000663931  0.8087568372385038
  0.7996186510621435  0.2500000000663931  0.8071146144316901
  0.0199502776119159  0.7500000176088264  0.9119223614624999
  0.1090348562744438  0.7500000176088264  0.9056798797078428
  0.2025446410210265  0.7500000176088264  0.9061191526122466
  0.2963113421139653  0.7500000176088264  0.9059031017162570
  0.3901486615670784  0.7500000176088264  0.9059459044718703
  0.4839471369626174  0.7500000176088264  0.9062623881063364
  0.5777213181422645  0.7500000176088264  0.9059658493653856
  0.6715587310108950  0.7500000176088264  0.9061755814912017
  0.7655933089840947  0.7500000176088264  0.9069316081722817
  0.0782952357583463  0.2500000000663931  0.0930683712539318
  0.1723298782471993  0.2500000000663931  0.0938243979350119
  0.2661672315645184  0.2500000000663931  0.0940341300608284
  0.3599415119998164  0.2500000000663931  0.0937375913198774
  0.4537399079970789  0.2500000000663931  0.0940540749543432
  0.5475772870014963  0.2500000000663931  0.0940968777099567
  0.6413439086857565  0.2500000000663931  0.0938808268139670
  0.7348537232079877  0.2500000000663931  0.0943200997183710
  0.8239382324009301  0.2500000000663931  0.0880776179637136
  0.0322999186947510  0.2500000000663931  0.3956059990462271
  0.1255518372127270  0.2500000000663931  0.4048229890524078
  0.2192658661861579  0.2500000000663931  0.4061124058278145
  0.3130358491396723  0.2500000000663931  0.4059624053960409
  0.4068783345859443  0.2500000000663931  0.4058489322877507
  0.5006530062586277  0.2500000000663931  0.4062351096884147
  0.5944319538078716  0.2500000000663931  0.4059816116351979
  0.6882203639431622  0.2500000000663931  0.4062547595242664
  0.7817164862855537  0.2500000000663931  0.4049774437517260
  0.0621720683855779  0.7500000176088264  0.5950225973872201
  0.1556681857636206  0.7500000176088264  0.5937452816146800
  0.2494566554502159  0.7500000176088264  0.5940184295037484
  0.3432356029994593  0.7500000176088264  0.5937649314505317
  0.4370102746721501  0.7500000176088264  0.5941511088511964
  0.5308527402714500  0.7500000176088264  0.5940376357429054
  0.6246227430719364  0.7500000176088264  0.5938876353111319
  0.7183367521983950  0.7500000176088264  0.5951770520865387
  0.8115886707059619  0.7500000176088264  0.6043940420927193
  0.0169847157308671  0.0715865683489008  0.1449299469074047
  0.1116605499975315  0.0703890564722956  0.1455597620493546
  0.2054482757084904  0.0703939364894740  0.1463202794280163
  0.2992913964578647  0.0703157706542179  0.1460043819363217
  0.3930676341016437  0.0703500656396845  0.1460945620493280
  0.4868609882876142  0.0703799411618020  0.1464451882595576
  0.5807051175241013  0.0703298089203214  0.1460592936796068
  0.6744352982167717  0.0703528241790969  0.1463285293189120
  0.7677062036483970  0.0700153514332105  0.1456102695014600
  0.0761824155383812  0.9299846396849131  0.8543897100109501
  0.1694533110413156  0.9296471669390263  0.8536714501934980
  0.2631835115913603  0.9296701821978018  0.8539406858328028
  0.3570276209704802  0.9296200499563214  0.8535547912528523
  0.4508209354625137  0.9296499254784391  0.8539054174630817
  0.5445972128002295  0.9296842204639055  0.8539955975760883
  0.6384402739982926  0.9296060546286493  0.8536797000843930
  0.7322280493318718  0.9296109346458278  0.8544402174630548
  0.8269037992359177  0.9284134227692227  0.8550700326050054
  0.0290986020517084  0.9285668308979800  0.6422259946803612
  0.1225988493441465  0.9296936446435805  0.6449463761724737
  0.2163254527807714  0.9296206976841661  0.6462498819213502
  0.3101199318036422  0.9296365407364033  0.6460685978376646
  0.4038888021451912  0.9296497801078536  0.6459951515515718
  0.4977300875107164  0.9296388494741795  0.6464582624464936
  0.5914940097406534  0.9296567757012265  0.6460220841537269
  0.6852542791980654  0.9296591791798433  0.6462826201228093
  0.7791112279259435  0.9303120182448636  0.6470221293432360
  0.0647773267451881  0.0696879728732596  0.3529778706826204
  0.1586342804374012  0.0703408119382802  0.3537173799030471
  0.2523945995174412  0.0703432154168972  0.3539779158721299
  0.3461585217577803  0.0703611416439441  0.3535417375793632
  0.4399997674085567  0.0703502110102698  0.3540048484742848
  0.5337686576074802  0.0703634503817201  0.3539314021881924
  0.6275631167729769  0.0703792934339573  0.3537501181045060
  0.7212897301382922  0.0703063464745428  0.3550536238533833
  0.8147899823950722  0.0714331602201431  0.3577740053454952
  0.0761824155383812  0.5700153602708201  0.8543897100109501
  0.1694533110413156  0.5703528330167069  0.8536714501934980
  0.2631835115913603  0.5703298177579313  0.8539406858328028
  0.3570276209704802  0.5703799499994118  0.8535547912528523
  0.4508209354625137  0.5703500744772941  0.8539054174630817
  0.5445972128002295  0.5703157794918277  0.8539955975760883
  0.6384402739982926  0.5703939453270839  0.8536797000843930
  0.7322280493318718  0.5703890653099054  0.8544402174630548
  0.8269037992359177  0.5715865771865105  0.8550700326050054
  0.0169847157308671  0.4284134227839808  0.1449299469074047
  0.1116605499975315  0.4296109346605859  0.1455597620493546
  0.2054482757084904  0.4296060546434075  0.1463202794280163
  0.2992913964578647  0.4296842204786635  0.1460043819363217
  0.3930676341016437  0.4296499254931968  0.1460945620493280
  0.4868609882876142  0.4296200499710793  0.1464451882595576
  0.5807051175241013  0.4296701822125601  0.1460592936796068
  0.6744352982167717  0.4296471669537846  0.1463285293189120
  0.7677062036483970  0.4299846396996708  0.1456102695014600
  0.0647773267451881  0.4303120182596218  0.3529778706826204
  0.1586342804374012  0.4296591791946012  0.3537173799030471
  0.2523945995174412  0.4296567757159843  0.3539779158721299
  0.3461585217577803  0.4296388494889370  0.3535417375793632
  0.4399997674085567  0.4296497801226115  0.3540048484742848
  0.5337686576074802  0.4296365407511613  0.3539314021881924
  0.6275631167729769  0.4296206976989242  0.3537501181045060
  0.7212897301382922  0.4296936446583384  0.3550536238533833
  0.8147899823950722  0.4285668309127382  0.3577740053454952
  0.0290986020517084  0.5714331690577532  0.6422259946803612
  0.1225988493441465  0.5703063553121526  0.6449463761724737
  0.2163254527807714  0.5703793022715671  0.6462498819213502
  0.3101199318036422  0.5703634592193298  0.6460685978376646
  0.4038888021451912  0.5703502198478796  0.6459951515515718
  0.4977300875107164  0.5703611504815537  0.6464582624464936
  0.5914940097406534  0.5703432242545067  0.6460220841537269
  0.6852542791980654  0.5703408207758899  0.6462826201228093
  0.7791112279259435  0.5696879817108695  0.6470221293432360
  0.0068801866638260  0.7500000176088264  0.6187071642814148
  0.1015076157544059  0.7500000176088264  0.5906925731412604
  0.1952268207898599  0.7500000176088264  0.5915526315012032
  0.2890206527212848  0.7500000176088264  0.5912976185345478
  0.3827997099611921  0.7500000176088264  0.5911971206383274
  0.4766311888883029  0.7500000176088264  0.5918550615382773
  0.5704008063780800  0.7500000176088264  0.5912945807047048
  0.6641735541922416  0.7500000176088264  0.5913430759348447
  0.7580840990122423  0.7500000176088264  0.5922200508653743
  0.0858045003171616  0.2500000000663931  0.4077799490742938
  0.1797149955145417  0.2500000000663931  0.4086569240048233
  0.2734877433287030  0.2500000000663931  0.4087054192349631
  0.3672574203697844  0.2500000000663931  0.4081449384013905
  0.4610888992968952  0.2500000000663931  0.4088028793013405
  0.5548679366898377  0.2500000000663931  0.4087023814051199
  0.6486617686212625  0.2500000000663931  0.4084473684384648
  0.7423810034323721  0.2500000000663931  0.4093074267984072
  0.8370083512617466  0.2500000000663931  0.3812928356582533
  0.0385070741116056  0.2500000000663931  0.0827279163670783
  0.1327862436515556  0.2500000000663931  0.0912356378494167
  0.2265530932955931  0.2500000000663931  0.0916556228900247
  0.3203740931384884  0.2500000000663931  0.0911564236684886
  0.4141647397837460  0.2500000000663931  0.0913268335355324
  0.5079630836714109  0.2500000000663931  0.0918132184816790
  0.6017946938930822  0.2500000000663931  0.0912725309906805
  0.6955266466697511  0.2500000000663931  0.0917412072176462
  0.7886403917137863  0.2500000000663931  0.0907736704616968
  0.0552481828147130  0.7500000176088264  0.9092263089645169
  0.1483619328126878  0.7500000176088264  0.9082587722085673
  0.2420938955180400  0.7500000176088264  0.9087274484355335
  0.3359254858927467  0.7500000176088264  0.9081867609445352
  0.4297238297700019  0.7500000176088264  0.9086731458906818
  0.5235145161196062  0.7500000176088264  0.9088435557577255
  0.6173354961051272  0.7500000176088264  0.9083443565361893
  0.7111023159839177  0.7500000176088264  0.9087643415767969
  0.8053814880008274  0.7500000176088264  0.9172720630591353
  0.0172092002323801  0.2500000000663931  0.9625235741988143
  0.1120517352820756  0.2500000000663931  0.9640334629961458
  0.2058154428342556  0.2500000000663931  0.9645755918104763
  0.2996246704507475  0.2500000000663931  0.9642624590992704
  0.3934220769203163  0.2500000000663931  0.9643686157121392
  0.4872189213750819  0.2500000000663931  0.9647256830659511
  0.5810484780362583  0.2500000000663931  0.9643175968052796
  0.6747971971886595  0.2500000000663931  0.9646369100770724
  0.7683972770492328  0.2500000000663931  0.9631547607785571
  0.0754913173262312  0.7500000176088264  0.0368452545892887
  0.1690914120798438  0.7500000176088264  0.0353631052907731
  0.2628400716705245  0.7500000176088264  0.0356824185625662
  0.3566696481890754  0.7500000176088264  0.0352743323018946
  0.4504664926438410  0.7500000176088264  0.0356313996557062
  0.5442639388073399  0.7500000176088264  0.0357375562685751
  0.6380731465768732  0.7500000176088264  0.0354244235573698
  0.7318368938333862  0.7500000176088264  0.0359665523716997
  0.8266794239187397  0.7500000176088264  0.0374764411690313
  0.0242305911192952  0.7500000176088264  0.4622808689730417
  0.1222371765059780  0.7500000176088264  0.4633068133474467
  0.2159791657529309  0.7500000176088264  0.4645467846032955
  0.3097689635566667  0.7500000176088264  0.4643607347743048
  0.4035522976120581  0.7500000176088264  0.4642581248536081
  0.4973759877400045  0.7500000176088264  0.4647306061549350
  0.5911426685656527  0.7500000176088264  0.4642774288717752
  0.6849374869777809  0.7500000176088264  0.4645373617652374
  0.7787653923823677  0.7500000176088264  0.4650811613237168
  0.0651231920644124  0.2500000000663931  0.5349187564759531
  0.1589510925046505  0.2500000000663931  0.5354625560344318
  0.2527459009880957  0.2500000000663931  0.5357224889278950
  0.3465126215180828  0.2500000000663931  0.5352693116447346
  0.4403362719416969  0.2500000000663931  0.5357417929460622
  0.5341196457118306  0.2500000000663931  0.5356391830253653
  0.6279094236581915  0.2500000000663931  0.5354531331963740
  0.7216513831294883  0.2500000000663931  0.5366931044522233
  0.8196579660392125  0.2500000000663931  0.5377190488266280
 
  0.00000000E+00  0.00000000E+00  0.00000000E+00
  0.00000000E+00  0.00000000E+00  0.00000000E+00
  0.00000000E+00  0.00000000E+00  0.00000000E+00
  0.00000000E+00  0.00000000E+00  0.00000000E+00
  0.00000000E+00  0.00000000E+00  0.00000000E+00
  0.00000000E+00  0.00000000E+00  0.00000000E+00
  0.00000000E+00  0.00000000E+00  0.00000000E+00
  0.00000000E+00  0.00000000E+00  0.00000000E+00
  0.00000000E+00  0.00000000E+00  0.00000000E+00
  0.00000000E+00  0.00000000E+00  0.00000000E+00
  0.00000000E+00  0.00000000E+00  0.00000000E+00
  0.00000000E+00  0.00000000E+00  0.00000000E+00
  0.00000000E+00  0.00000000E+00  0.00000000E+00
  0.00000000E+00  0.00000000E+00  0.00000000E+00
  0.00000000E+00  0.00000000E+00  0.00000000E+00
  0.00000000E+00  0.00000000E+00  0.00000000E+00
  0.00000000E+00  0.00000000E+00  0.00000000E+00
  0.00000000E+00  0.00000000E+00  0.00000000E+00
  0.00000000E+00  0.00000000E+00  0.00000000E+00
  0.00000000E+00  0.00000000E+00  0.00000000E+00
  0.00000000E+00  0.00000000E+00  0.00000000E+00
  0.00000000E+00  0.00000000E+00  0.00000000E+00
  0.00000000E+00  0.00000000E+00  0.00000000E+00
  0.00000000E+00  0.00000000E+00  0.00000000E+00
  0.00000000E+00  0.00000000E+00  0.00000000E+00
  0.00000000E+00  0.00000000E+00  0.00000000E+00
  0.00000000E+00  0.00000000E+00  0.00000000E+00
  0.00000000E+00  0.00000000E+00  0.00000000E+00
  0.00000000E+00  0.00000000E+00  0.00000000E+00
  0.00000000E+00  0.00000000E+00  0.00000000E+00
  0.00000000E+00  0.00000000E+00  0.00000000E+00
  0.00000000E+00  0.00000000E+00  0.00000000E+00
  0.00000000E+00  0.00000000E+00  0.00000000E+00
  0.00000000E+00  0.00000000E+00  0.00000000E+00
  0.00000000E+00  0.00000000E+00  0.00000000E+00
  0.00000000E+00  0.00000000E+00  0.00000000E+00
  0.00000000E+00  0.00000000E+00  0.00000000E+00
  0.00000000E+00  0.00000000E+00  0.00000000E+00
  0.00000000E+00  0.00000000E+00  0.00000000E+00
  0.00000000E+00  0.00000000E+00  0.00000000E+00
  0.00000000E+00  0.00000000E+00  0.00000000E+00
  0.00000000E+00  0.00000000E+00  0.00000000E+00
  0.00000000E+00  0.00000000E+00  0.00000000E+00
  0.00000000E+00  0.00000000E+00  0.00000000E+00
  0.00000000E+00  0.00000000E+00  0.00000000E+00
  0.00000000E+00  0.00000000E+00  0.00000000E+00
  0.00000000E+00  0.00000000E+00  0.00000000E+00
  0.00000000E+00  0.00000000E+00  0.00000000E+00
  0.00000000E+00  0.00000000E+00  0.00000000E+00
  0.00000000E+00  0.00000000E+00  0.00000000E+00
  0.00000000E+00  0.00000000E+00  0.00000000E+00
  0.00000000E+00  0.00000000E+00  0.00000000E+00
  0.00000000E+00  0.00000000E+00  0.00000000E+00
  0.00000000E+00  0.00000000E+00  0.00000000E+00
  0.00000000E+00  0.00000000E+00  0.00000000E+00
  0.00000000E+00  0.00000000E+00  0.00000000E+00
  0.00000000E+00  0.00000000E+00  0.00000000E+00
  0.00000000E+00  0.00000000E+00  0.00000000E+00
  0.00000000E+00  0.00000000E+00  0.00000000E+00
  0.00000000E+00  0.00000000E+00  0.00000000E+00
  0.00000000E+00  0.00000000E+00  0.00000000E+00
  0.00000000E+00  0.00000000E+00  0.00000000E+00
  0.00000000E+00  0.00000000E+00  0.00000000E+00
  0.00000000E+00  0.00000000E+00  0.00000000E+00
  0.00000000E+00  0.00000000E+00  0.00000000E+00
  0.00000000E+00  0.00000000E+00  0.00000000E+00
  0.00000000E+00  0.00000000E+00  0.00000000E+00
  0.00000000E+00  0.00000000E+00  0.00000000E+00
  0.00000000E+00  0.00000000E+00  0.00000000E+00
  0.00000000E+00  0.00000000E+00  0.00000000E+00
  0.00000000E+00  0.00000000E+00  0.00000000E+00
  0.00000000E+00  0.00000000E+00  0.00000000E+00
  0.00000000E+00  0.00000000E+00  0.00000000E+00
  0.00000000E+00  0.00000000E+00  0.00000000E+00
  0.00000000E+00  0.00000000E+00  0.00000000E+00
  0.00000000E+00  0.00000000E+00  0.00000000E+00
  0.00000000E+00  0.00000000E+00  0.00000000E+00
  0.00000000E+00  0.00000000E+00  0.00000000E+00
  0.00000000E+00  0.00000000E+00  0.00000000E+00
  0.00000000E+00  0.00000000E+00  0.00000000E+00
  0.00000000E+00  0.00000000E+00  0.00000000E+00
  0.00000000E+00  0.00000000E+00  0.00000000E+00
  0.00000000E+00  0.00000000E+00  0.00000000E+00
  0.00000000E+00  0.00000000E+00  0.00000000E+00
  0.00000000E+00  0.00000000E+00  0.00000000E+00
  0.00000000E+00  0.00000000E+00  0.00000000E+00
  0.00000000E+00  0.00000000E+00  0.00000000E+00
  0.00000000E+00  0.00000000E+00  0.00000000E+00
  0.00000000E+00  0.00000000E+00  0.00000000E+00
  0.00000000E+00  0.00000000E+00  0.00000000E+00
  0.00000000E+00  0.00000000E+00  0.00000000E+00
  0.00000000E+00  0.00000000E+00  0.00000000E+00
  0.00000000E+00  0.00000000E+00  0.00000000E+00
  0.00000000E+00  0.00000000E+00  0.00000000E+00
  0.00000000E+00  0.00000000E+00  0.00000000E+00
  0.00000000E+00  0.00000000E+00  0.00000000E+00
  0.00000000E+00  0.00000000E+00  0.00000000E+00
  0.00000000E+00  0.00000000E+00  0.00000000E+00
  0.00000000E+00  0.00000000E+00  0.00000000E+00
  0.00000000E+00  0.00000000E+00  0.00000000E+00
  0.00000000E+00  0.00000000E+00  0.00000000E+00
  0.00000000E+00  0.00000000E+00  0.00000000E+00
  0.00000000E+00  0.00000000E+00  0.00000000E+00
  0.00000000E+00  0.00000000E+00  0.00000000E+00
  0.00000000E+00  0.00000000E+00  0.00000000E+00
  0.00000000E+00  0.00000000E+00  0.00000000E+00
  0.00000000E+00  0.00000000E+00  0.00000000E+00
  0.00000000E+00  0.00000000E+00  0.00000000E+00
  0.00000000E+00  0.00000000E+00  0.00000000E+00
  0.00000000E+00  0.00000000E+00  0.00000000E+00
  0.00000000E+00  0.00000000E+00  0.00000000E+00
  0.00000000E+00  0.00000000E+00  0.00000000E+00
  0.00000000E+00  0.00000000E+00  0.00000000E+00
  0.00000000E+00  0.00000000E+00  0.00000000E+00
  0.00000000E+00  0.00000000E+00  0.00000000E+00
  0.00000000E+00  0.00000000E+00  0.00000000E+00
  0.00000000E+00  0.00000000E+00  0.00000000E+00
  0.00000000E+00  0.00000000E+00  0.00000000E+00
  0.00000000E+00  0.00000000E+00  0.00000000E+00
  0.00000000E+00  0.00000000E+00  0.00000000E+00
  0.00000000E+00  0.00000000E+00  0.00000000E+00
  0.00000000E+00  0.00000000E+00  0.00000000E+00
  0.00000000E+00  0.00000000E+00  0.00000000E+00
  0.00000000E+00  0.00000000E+00  0.00000000E+00
  0.00000000E+00  0.00000000E+00  0.00000000E+00
  0.00000000E+00  0.00000000E+00  0.00000000E+00
  0.00000000E+00  0.00000000E+00  0.00000000E+00
  0.00000000E+00  0.00000000E+00  0.00000000E+00
  0.00000000E+00  0.00000000E+00  0.00000000E+00
  0.00000000E+00  0.00000000E+00  0.00000000E+00
  0.00000000E+00  0.00000000E+00  0.00000000E+00
  0.00000000E+00  0.00000000E+00  0.00000000E+00
  0.00000000E+00  0.00000000E+00  0.00000000E+00
  0.00000000E+00  0.00000000E+00  0.00000000E+00
  0.00000000E+00  0.00000000E+00  0.00000000E+00
  0.00000000E+00  0.00000000E+00  0.00000000E+00
  0.00000000E+00  0.00000000E+00  0.00000000E+00
  0.00000000E+00  0.00000000E+00  0.00000000E+00
  0.00000000E+00  0.00000000E+00  0.00000000E+00
  0.00000000E+00  0.00000000E+00  0.00000000E+00
  0.00000000E+00  0.00000000E+00  0.00000000E+00
  0.00000000E+00  0.00000000E+00  0.00000000E+00
  0.00000000E+00  0.00000000E+00  0.00000000E+00
  0.00000000E+00  0.00000000E+00  0.00000000E+00
  0.00000000E+00  0.00000000E+00  0.00000000E+00
  0.00000000E+00  0.00000000E+00  0.00000000E+00
  0.00000000E+00  0.00000000E+00  0.00000000E+00
  0.00000000E+00  0.00000000E+00  0.00000000E+00
  0.00000000E+00  0.00000000E+00  0.00000000E+00
  0.00000000E+00  0.00000000E+00  0.00000000E+00
  0.00000000E+00  0.00000000E+00  0.00000000E+00
  0.00000000E+00  0.00000000E+00  0.00000000E+00
  0.00000000E+00  0.00000000E+00  0.00000000E+00
  0.00000000E+00  0.00000000E+00  0.00000000E+00
  0.00000000E+00  0.00000000E+00  0.00000000E+00
  0.00000000E+00  0.00000000E+00  0.00000000E+00
  0.00000000E+00  0.00000000E+00  0.00000000E+00
  0.00000000E+00  0.00000000E+00  0.00000000E+00
  0.00000000E+00  0.00000000E+00  0.00000000E+00
  0.00000000E+00  0.00000000E+00  0.00000000E+00
  0.00000000E+00  0.00000000E+00  0.00000000E+00
  0.00000000E+00  0.00000000E+00  0.00000000E+00
  0.00000000E+00  0.00000000E+00  0.00000000E+00
  0.00000000E+00  0.00000000E+00  0.00000000E+00
  0.00000000E+00  0.00000000E+00  0.00000000E+00
  0.00000000E+00  0.00000000E+00  0.00000000E+00
  0.00000000E+00  0.00000000E+00  0.00000000E+00
  0.00000000E+00  0.00000000E+00  0.00000000E+00
  0.00000000E+00  0.00000000E+00  0.00000000E+00
  0.00000000E+00  0.00000000E+00  0.00000000E+00
  0.00000000E+00  0.00000000E+00  0.00000000E+00
  0.00000000E+00  0.00000000E+00  0.00000000E+00
  0.00000000E+00  0.00000000E+00  0.00000000E+00
  0.00000000E+00  0.00000000E+00  0.00000000E+00
  0.00000000E+00  0.00000000E+00  0.00000000E+00
  0.00000000E+00  0.00000000E+00  0.00000000E+00
  0.00000000E+00  0.00000000E+00  0.00000000E+00
  0.00000000E+00  0.00000000E+00  0.00000000E+00
  0.00000000E+00  0.00000000E+00  0.00000000E+00
  0.00000000E+00  0.00000000E+00  0.00000000E+00
  0.00000000E+00  0.00000000E+00  0.00000000E+00
  0.00000000E+00  0.00000000E+00  0.00000000E+00
  0.00000000E+00  0.00000000E+00  0.00000000E+00
  0.00000000E+00  0.00000000E+00  0.00000000E+00
  0.00000000E+00  0.00000000E+00  0.00000000E+00
  0.00000000E+00  0.00000000E+00  0.00000000E+00
  0.00000000E+00  0.00000000E+00  0.00000000E+00
  0.00000000E+00  0.00000000E+00  0.00000000E+00
  0.00000000E+00  0.00000000E+00  0.00000000E+00
  0.00000000E+00  0.00000000E+00  0.00000000E+00
  0.00000000E+00  0.00000000E+00  0.00000000E+00
  0.00000000E+00  0.00000000E+00  0.00000000E+00
  0.00000000E+00  0.00000000E+00  0.00000000E+00
  0.00000000E+00  0.00000000E+00  0.00000000E+00
  0.00000000E+00  0.00000000E+00  0.00000000E+00
  0.00000000E+00  0.00000000E+00  0.00000000E+00
  0.00000000E+00  0.00000000E+00  0.00000000E+00
  0.00000000E+00  0.00000000E+00  0.00000000E+00
  0.00000000E+00  0.00000000E+00  0.00000000E+00
  0.00000000E+00  0.00000000E+00  0.00000000E+00
  0.00000000E+00  0.00000000E+00  0.00000000E+00
  0.00000000E+00  0.00000000E+00  0.00000000E+00
  0.00000000E+00  0.00000000E+00  0.00000000E+00
  0.00000000E+00  0.00000000E+00  0.00000000E+00
  0.00000000E+00  0.00000000E+00  0.00000000E+00
  0.00000000E+00  0.00000000E+00  0.00000000E+00
  0.00000000E+00  0.00000000E+00  0.00000000E+00
  0.00000000E+00  0.00000000E+00  0.00000000E+00
  0.00000000E+00  0.00000000E+00  0.00000000E+00
  0.00000000E+00  0.00000000E+00  0.00000000E+00
  0.00000000E+00  0.00000000E+00  0.00000000E+00
  0.00000000E+00  0.00000000E+00  0.00000000E+00
  0.00000000E+00  0.00000000E+00  0.00000000E+00
  0.00000000E+00  0.00000000E+00  0.00000000E+00
  0.00000000E+00  0.00000000E+00  0.00000000E+00
  0.00000000E+00  0.00000000E+00  0.00000000E+00
