ba8 si16                                
   1.00000000000000     
    24.0094680786000012    0.0000000000000000    0.0000000000000000
     0.0000000000000000    6.7778496741999996    0.0000000000000000
     0.0000000000000000    0.0000000000000000   11.6021432877000006
   Ba   Si
     8    16
Selective dynamics
Direct
  0.0056936146836932  0.2500000000663931  0.7065262499513105   F   T   T
  0.3695528538555379  0.7500000176088264  0.2934737500745466   F   T   T
  0.1819296202106742  0.7500000176088264  0.1875133108979177   F   T   T
  0.1933168470790463  0.2500000000663931  0.8124866685282959   F   T   T
  0.0597801408303269  0.7500000176088264  0.9201740149681660   F   T   T
  0.3154663265010456  0.2500000000663931  0.0798259644580478   F   T   T
  0.1278430928145298  0.2500000000663931  0.3980768372434513   F   T   T
  0.2474033744751907  0.7500000176088264  0.6019232038954955   F   T   T
  0.0728991332615152  0.0729305461589275  0.1463070669232228   F   T   T
  0.3023473340698573  0.9270694449591961  0.8536929125891871   F   T   T
  0.1147241003833415  0.9274985968615813  0.6585877077934497   F   T   T
  0.2605223669063790  0.0725013942565420  0.3414122922324070   F   T   T
  0.3023473340698573  0.5729305549965371  0.8536929125891871   F   T   T
  0.0728991332615152  0.4270694449739539  0.1463070669232228   F   T   T
  0.2605223669063790  0.4274985968763395  0.3414122922324070   F   T   T
  0.1147241003833415  0.5725014030941519  0.6585877077934497   F   T   T
  0.0311098080788312  0.7500000176088264  0.5995118214223190   F   T   T
  0.3441366517971503  0.2500000000663931  0.4004881785173487   F   T   T
  0.1565134280650469  0.2500000000663931  0.0860753421131627   F   T   T
  0.2187330491790789  0.7500000176088264  0.9139246373130508   F   T   T
  0.0741839757202953  0.2500000000663931  0.9649080776520333   F   T   T
  0.3010624866547005  0.7500000176088264  0.0350919377158125   F   T   T
  0.1134392529681918  0.7500000176088264  0.4768726961062053   F   T   T
  0.2618072143215286  0.2500000000663931  0.5231272216934644   F   T   T
 
  0.00000000E+00  0.00000000E+00  0.00000000E+00
  0.00000000E+00  0.00000000E+00  0.00000000E+00
  0.00000000E+00  0.00000000E+00  0.00000000E+00
  0.00000000E+00  0.00000000E+00  0.00000000E+00
  0.00000000E+00  0.00000000E+00  0.00000000E+00
  0.00000000E+00  0.00000000E+00  0.00000000E+00
  0.00000000E+00  0.00000000E+00  0.00000000E+00
  0.00000000E+00  0.00000000E+00  0.00000000E+00
  0.00000000E+00  0.00000000E+00  0.00000000E+00
  0.00000000E+00  0.00000000E+00  0.00000000E+00
  0.00000000E+00  0.00000000E+00  0.00000000E+00
  0.00000000E+00  0.00000000E+00  0.00000000E+00
  0.00000000E+00  0.00000000E+00  0.00000000E+00
  0.00000000E+00  0.00000000E+00  0.00000000E+00
  0.00000000E+00  0.00000000E+00  0.00000000E+00
  0.00000000E+00  0.00000000E+00  0.00000000E+00
  0.00000000E+00  0.00000000E+00  0.00000000E+00
  0.00000000E+00  0.00000000E+00  0.00000000E+00
  0.00000000E+00  0.00000000E+00  0.00000000E+00
  0.00000000E+00  0.00000000E+00  0.00000000E+00
  0.00000000E+00  0.00000000E+00  0.00000000E+00
  0.00000000E+00  0.00000000E+00  0.00000000E+00
  0.00000000E+00  0.00000000E+00  0.00000000E+00
  0.00000000E+00  0.00000000E+00  0.00000000E+00
