ba8 si16                                
   1.00000000000000     
    23.9290097408798523    0.0000000000000000    0.0000000000000000
     0.0000000000000000    6.7137866604370906    0.0000000000000000
     0.0000000000000000    0.0000000000000000   11.4965093306296655
   Ba   Si
     8    16
Selective dynamics
Direct
  0.0149857463833172  0.2500000000663931  0.6112748980100736   F   T   T
  0.9850142568799143  0.7500000176088264  0.3887251020157829   F   T   T
  0.4850142569132103  0.7500000176088264  0.1112748362844091   F   T   T
  0.5149857430201905  0.2500000000663931  0.8887251431418047   F   T   T
  0.1589881810708391  0.7500000176088264  0.8210897349012219   F   T   T
  0.8410118189735556  0.2500000000663931  0.1789102445249918   F   T   T
  0.3410118188958648  0.2500000000663931  0.3210898171144769   F   T   T
  0.6589881810375431  0.7500000176088264  0.6789102240244697   F   T   T
  0.1939075034552431  0.0808342053424594  0.0234275804324062   F   T   T
  0.8060924965891516  0.9191657857756635  0.9765723990800030   F   T   T
  0.3060924965114538  0.9191657857756635  0.5234276009587855   F   T   T
  0.6939075034219471  0.0808342053424594  0.4765723990670716   F   T   T
  0.8060924965891516  0.5808342141800695  0.9765723990800030   F   T   T
  0.1939075034552431  0.4191657857904220  0.0234275804324062   F   T   T
  0.6939075034219471  0.4191657857904220  0.4765723990670716   F   T   T
  0.3060924965114538  0.5808342141800695  0.5234276009587855   F   T   T
  0.0827464890149301  0.7500000176088264  0.5858251703989416   F   T   T
  0.9172534911614818  0.2500000000663931  0.4141748295407264   F   T   T
  0.4172535176114351  0.2500000000663931  0.0858251087594656   F   T   T
  0.5827465088496169  0.7500000176088264  0.9141748706667480   F   T   T
  0.1975943542569283  0.2500000000663931  0.8450451153823672   F   T   T
  0.8024056325791449  0.7500000176088264  0.1549548999854781   F   T   T
  0.3024056325014470  0.7500000176088264  0.3450450332294449   F   T   T
  0.6975943674319538  0.2500000000663931  0.6549548845702254   F   T   T
 
  0.00000000E+00  0.00000000E+00  0.00000000E+00
  0.00000000E+00  0.00000000E+00  0.00000000E+00
  0.00000000E+00  0.00000000E+00  0.00000000E+00
  0.00000000E+00  0.00000000E+00  0.00000000E+00
  0.00000000E+00  0.00000000E+00  0.00000000E+00
  0.00000000E+00  0.00000000E+00  0.00000000E+00
  0.00000000E+00  0.00000000E+00  0.00000000E+00
  0.00000000E+00  0.00000000E+00  0.00000000E+00
  0.00000000E+00  0.00000000E+00  0.00000000E+00
  0.00000000E+00  0.00000000E+00  0.00000000E+00
  0.00000000E+00  0.00000000E+00  0.00000000E+00
  0.00000000E+00  0.00000000E+00  0.00000000E+00
  0.00000000E+00  0.00000000E+00  0.00000000E+00
  0.00000000E+00  0.00000000E+00  0.00000000E+00
  0.00000000E+00  0.00000000E+00  0.00000000E+00
  0.00000000E+00  0.00000000E+00  0.00000000E+00
  0.00000000E+00  0.00000000E+00  0.00000000E+00
  0.00000000E+00  0.00000000E+00  0.00000000E+00
  0.00000000E+00  0.00000000E+00  0.00000000E+00
  0.00000000E+00  0.00000000E+00  0.00000000E+00
  0.00000000E+00  0.00000000E+00  0.00000000E+00
  0.00000000E+00  0.00000000E+00  0.00000000E+00
  0.00000000E+00  0.00000000E+00  0.00000000E+00
  0.00000000E+00  0.00000000E+00  0.00000000E+00
