ba8 si8 c8                              
   1.00000000000000     
     8.5147504338433535   -0.0000000000000000    0.0000000000000000
    -0.0000000000000000    6.1291210826914426    0.0000000000000000
     0.0000000000000000    0.0000000000000000   11.5000700737333101
   Ba   Si   C 
     8     8     8
Direct
 -0.0308713085124829  0.2500000000663931  0.6574468500815333
  0.0308713117757144  0.7500000176088264  0.3425531499443238
  0.5308713118090104  0.7500000176088264  0.1574467883558683
  0.4691286881243905  0.2500000000663931  0.8425531910703451
  0.1277914169132421  0.7500000176088264  0.9267014882075505
  0.8722085831311599  0.2500000000663931  0.0732984912186632
  0.3722085830534620  0.2500000000663931  0.4267015704208055
  0.6277914168799388  0.7500000176088264  0.5732984707181411
  0.2178840804783363  0.0590729928959934  0.1600566088606922
  0.7821159195660586  0.9409269982221300  0.8399433706517174
  0.2821159194883604  0.9409269982221300  0.6600566293870711
  0.7178840804450400  0.0590729928959934  0.3399433706387855
  0.7821159195660586  0.5590730017336032  0.8399433706517174
  0.2178840804783363  0.4409269982368881  0.1600566088606922
  0.7178840804450400  0.4409269982368881  0.3399433706387855
  0.2821159194883605  0.5590730017336032  0.6600566293870711
  0.1344891830376486  0.7500000176088264  0.5681322327779468
  0.8655107971387634  0.2500000000663931  0.4318677671617206
  0.3655108235887166  0.2500000000663931  0.0681321711384713
  0.6344892028723352  0.7500000176088264  0.9318678082877427
  0.2098043789448789  0.2500000000663931  0.0176409514575323
  0.7901956078911941  0.7500000176088264 -0.0176409360896863
  0.2901956078134965  0.7500000176088264  0.5176408693046092
  0.7098043921199044  0.2500000000663931  0.4823590484950603
 
  0.00000000E+00  0.00000000E+00  0.00000000E+00
  0.00000000E+00  0.00000000E+00  0.00000000E+00
  0.00000000E+00  0.00000000E+00  0.00000000E+00
  0.00000000E+00  0.00000000E+00  0.00000000E+00
  0.00000000E+00  0.00000000E+00  0.00000000E+00
  0.00000000E+00  0.00000000E+00  0.00000000E+00
  0.00000000E+00  0.00000000E+00  0.00000000E+00
  0.00000000E+00  0.00000000E+00  0.00000000E+00
  0.00000000E+00  0.00000000E+00  0.00000000E+00
  0.00000000E+00  0.00000000E+00  0.00000000E+00
  0.00000000E+00  0.00000000E+00  0.00000000E+00
  0.00000000E+00  0.00000000E+00  0.00000000E+00
  0.00000000E+00  0.00000000E+00  0.00000000E+00
  0.00000000E+00  0.00000000E+00  0.00000000E+00
  0.00000000E+00  0.00000000E+00  0.00000000E+00
  0.00000000E+00  0.00000000E+00  0.00000000E+00
  0.00000000E+00  0.00000000E+00  0.00000000E+00
  0.00000000E+00  0.00000000E+00  0.00000000E+00
  0.00000000E+00  0.00000000E+00  0.00000000E+00
  0.00000000E+00  0.00000000E+00  0.00000000E+00
  0.00000000E+00  0.00000000E+00  0.00000000E+00
  0.00000000E+00  0.00000000E+00  0.00000000E+00
  0.00000000E+00  0.00000000E+00  0.00000000E+00
  0.00000000E+00  0.00000000E+00  0.00000000E+00
